#=======================================================
# FHI-aims file: /home/chem/msrmnk/1_calculations/1_H_on_metals/5_ml_models/1_schnet/1_h2cu/7_adaptive_learning/1_julia_scripts/1_initial_conditions/output/1_scattering/cu100_start.in
# Created using the Atomic Simulation Environment (ASE)
# Tue Jan 25 22:45:53 2022
#=======================================================
lattice_vector 7.7487589500000000 0.0000000000000000 0.0000000000000000 
lattice_vector 0.0000000000000000 7.7487589500000000 0.0000000000000000 
lattice_vector 0.0000000000000000 0.0000000000000000 49.1319999999999979 
atom 1.2914598300000000 1.2914598300000000 0.0000000000000000 Cu
    constrain_relaxation .true.
atom 3.8743794800000000 1.2914598300000000 0.0000000000000000 Cu
    constrain_relaxation .true.
atom 6.4572991300000000 1.2914598300000000 0.0000000000000000 Cu
    constrain_relaxation .true.
atom 1.2914598300000000 3.8743794800000000 0.0000000000000000 Cu
    constrain_relaxation .true.
atom 3.8743794800000000 3.8743794800000000 0.0000000000000000 Cu
    constrain_relaxation .true.
atom 6.4572991300000000 3.8743794800000000 0.0000000000000000 Cu
    constrain_relaxation .true.
atom 1.2914598300000000 6.4572991300000000 0.0000000000000000 Cu
    constrain_relaxation .true.
atom 3.8743794800000000 6.4572991300000000 0.0000000000000000 Cu
    constrain_relaxation .true.
atom 6.4572991300000000 6.4572991300000000 0.0000000000000000 Cu
    constrain_relaxation .true.
atom 0.0000000000000000 0.0000000000000000 1.8264000000000000 Cu
    constrain_relaxation .true.
atom 2.5829196500000000 0.0000000000000000 1.8264000000000000 Cu
    constrain_relaxation .true.
atom 5.1658393000000000 0.0000000000000000 1.8264000000000000 Cu
    constrain_relaxation .true.
atom 0.0000000000000000 2.5829196500000000 1.8264000000000000 Cu
    constrain_relaxation .true.
atom 2.5829196500000000 2.5829196500000000 1.8264000000000000 Cu
    constrain_relaxation .true.
atom 5.1658393000000000 2.5829196500000000 1.8264000000000000 Cu
    constrain_relaxation .true.
atom 0.0000000000000000 5.1658393000000000 1.8264000000000000 Cu
    constrain_relaxation .true.
atom 2.5829196500000000 5.1658393000000000 1.8264000000000000 Cu
    constrain_relaxation .true.
atom 5.1658393000000000 5.1658393000000000 1.8264000000000000 Cu
    constrain_relaxation .true.
atom 0.8331516900000000 1.0857516899999999 3.9645177800000000 Cu
atom 3.5095333499999999 1.3886276600000000 3.8039062299999999 Cu
atom 6.0566484899999997 1.3327545999999999 4.0509115800000002 Cu
atom 1.3261518900000000 3.9668485499999999 3.9777230800000001 Cu
atom 3.8962436800000000 3.7940782799999999 3.7931999500000000 Cu
atom 6.3651429400000001 4.0747427199999997 3.6813682499999998 Cu
atom 1.2957442200000000 6.3150496100000000 3.6325529699999999 Cu
atom 3.7157054100000000 6.4753675400000006 3.8367815699999999 Cu
atom 6.3762662299999997 6.5928800800000005 3.8769295499999998 Cu
atom 7.5982677000000001 7.7439188699999999 5.8568150000000001 Cu
atom 2.3268713000000001 7.6861950400000003 5.8088457800000004 Cu
atom 4.8922416200000001 0.0575654900000000 5.7064442599999996 Cu
atom 7.5182775800000003 2.4869550800000000 5.5972456700000004 Cu
atom 2.2752644599999998 2.3430389900000002 5.9523836499999998 Cu
atom 4.6637082900000006 2.5032140400000000 5.6954259299999999 Cu
atom 7.6911490699999998 5.1742699800000000 5.8144184399999999 Cu
atom 2.3158207900000001 5.0616785699999998 6.0981026600000003 Cu
atom 5.1197999300000001 5.2573468500000002 5.5361307499999999 Cu
atom 1.2497395499999999 1.0762245399999999 7.7795848100000002 Cu
atom 3.6827090000000000 1.4478449600000001 7.7180177399999996 Cu
atom 1.2745676699999999 3.6254840300000000 7.6712074200000000 Cu
atom 3.9496589800000002 4.0084113000000006 7.6783648800000002 Cu
atom 6.1348856000000005 1.3757874699999999 7.6007401100000003 Cu
atom 6.3557839800000000 3.7423624300000000 7.4627241199999998 Cu
atom 0.8460166600000000 6.2339470500000003 7.9103295700000000 Cu
atom 3.7105516600000001 6.5578552200000004 7.5418852300000001 Cu
atom 6.2756106100000002 6.5550688099999999 7.4780383700000002 Cu
atom 4.8099800799999999 0.2395108300000000 9.4371126800000003 Cu
atom 5.3083778600000002 2.9442096100000001 9.6764245599999992 Cu
atom 4.8130386400000003 5.5680846400000004 9.5006492599999994 Cu
atom 7.2784499700000005 5.1471027500000002 9.4549720900000001 Cu
atom 2.3195818699999999 5.5124709300000001 9.7122646899999996 Cu
atom 7.3939903600000001 7.7180375699999999 9.4334683100000003 Cu
atom 2.0645208199999998 0.1598512000000000 9.6058752199999997 Cu
atom 0.1635069800000000 2.4868343300000002 9.4712619300000007 Cu
atom 2.7362121699999999 2.5430921299999998 9.4482723100000001 Cu
atom 3.8743794750000000 3.8743794750000000 16.4162335800000001 H
atom 3.3531243975398373 3.3531243975398373 16.4162335800000001 H
