#=======================================================
# FHI-aims file: /home/m/msrmnk2/1_calculations/1_ml/5_sticking_probabilities/0_initial_conditions/inputs/cu111_925K_3x3_20lr.in
# Created using the Atomic Simulation Environment (ASE)
# Thu Jun  8 12:17:21 2023
#=======================================================
lattice_vector 7.7487589509546630 0.0000000000000000 0.0000000000000000 
lattice_vector 3.8743794754773315 6.7106220993287939 0.0000000000000000 
lattice_vector 0.0000000000000000 0.0000000000000000 80.0699562026214409 
atom -0.0000000000000000 1.4912493600000001 0.0000000000000000 Cu
  constrain_relaxation .true.
atom 2.5829196500000000 1.4912493600000001 0.0000000000000000 Cu
  constrain_relaxation .true.
atom 5.1658393000000000 1.4912493600000001 0.0000000000000000 Cu
  constrain_relaxation .true.
atom 1.2914598300000000 3.7281233899999999 0.0000000000000000 Cu
  constrain_relaxation .true.
atom 3.8743794800000000 3.7281233899999999 0.0000000000000000 Cu
  constrain_relaxation .true.
atom 6.4572991300000000 3.7281233899999999 0.0000000000000000 Cu
  constrain_relaxation .true.
atom 2.5829196500000000 5.9649974200000004 0.0000000000000000 Cu
  constrain_relaxation .true.
atom 5.1658393000000000 5.9649974200000004 0.0000000000000000 Cu
  constrain_relaxation .true.
atom 7.7487589500000000 5.9649974200000004 0.0000000000000000 Cu
  constrain_relaxation .true.
atom 0.0000000000000000 0.0000000000000000 2.1089450599999999 Cu
  constrain_relaxation .true.
atom 2.5829196500000000 0.0000000000000000 2.1089450599999999 Cu
  constrain_relaxation .true.
atom 5.1658393000000000 0.0000000000000000 2.1089450599999999 Cu
  constrain_relaxation .true.
atom 1.2914598300000000 2.2368740300000001 2.1089450599999999 Cu
  constrain_relaxation .true.
atom 3.8743794800000000 2.2368740300000001 2.1089450599999999 Cu
  constrain_relaxation .true.
atom 6.4572991300000000 2.2368740300000001 2.1089450599999999 Cu
  constrain_relaxation .true.
atom 2.5829196500000000 4.4737480700000001 2.1089450599999999 Cu
  constrain_relaxation .true.
atom 5.1658393000000000 4.4737480700000001 2.1089450599999999 Cu
  constrain_relaxation .true.
atom 7.7487589500000000 4.4737480700000001 2.1089450599999999 Cu
  constrain_relaxation .true.
atom 1.3145744500000001 0.7657421400000000 3.9532756999999998 Cu
atom 3.9154434000000000 0.9526051300000000 4.0705293999999999 Cu
atom 6.4890223799999998 0.6431240200000000 4.1239007799999996 Cu
atom 2.4489918199999998 2.9866573199999999 4.1930784299999999 Cu
atom 5.0142987300000001 2.8584809000000000 4.1216145300000004 Cu
atom 7.7268139299999996 3.0728664900000000 4.1627863999999999 Cu
atom 3.9648310300000000 5.0452951500000003 4.2415304500000000 Cu
atom 6.4351123499999998 5.2211908600000001 4.2293217199999997 Cu
atom 9.0537376700000003 5.2223831000000001 4.1985751899999997 Cu
atom 7.7477297900000002 1.5643095400000000 6.0132541599999998 Cu
atom 2.6949626499999999 1.5858340500000001 6.3060817199999999 Cu
atom 5.1035298700000000 1.4309565399999999 6.4276542499999998 Cu
atom 9.1707479700000007 3.8432715599999998 6.2054754900000004 Cu
atom 4.0971302700000001 3.7313112400000001 6.3991946799999999 Cu
atom 6.3743847499999999 3.7587719800000001 6.3457217799999999 Cu
atom 10.3174591899999992 6.0317058499999998 6.2085363700000000 Cu
atom 5.1785103399999999 5.9996633299999997 6.1979923799999996 Cu
atom 7.9315858700000001 5.8774156900000003 6.2676086499999997 Cu
atom 7.6568189599999998 0.1514465400000000 8.3260802599999995 Cu
atom 2.4092342300000000 0.0951317600000000 8.4045048799999993 Cu
atom 4.9677661600000000 0.1465083500000000 8.5071290899999994 Cu
atom 9.0984986800000005 2.4444271199999998 8.4406346800000005 Cu
atom 3.6969719599999999 2.2992540199999998 8.3775536099999997 Cu
atom 6.4762341200000000 2.3506938499999999 8.5115684599999994 Cu
atom 10.4762850800000002 4.7476583100000003 8.3512905600000007 Cu
atom 5.0702870200000003 4.5815202399999997 8.3009045900000000 Cu
atom 7.8484008899999997 4.4698316699999996 8.3166366499999995 Cu
atom 1.2415563800000000 0.5195065900000000 10.5224465200000008 Cu
atom 3.7411354299999999 0.7406791000000000 10.4250854200000003 Cu
atom 6.4987800399999998 0.8198468000000000 10.6346524900000006 Cu
atom 2.5700777000000001 3.1661983600000001 10.6457135300000001 Cu
atom 5.0740116300000002 2.9618070300000001 10.6534076100000004 Cu
atom 7.5682347300000004 3.0588334100000001 10.4863312200000003 Cu
atom 3.8546440300000002 5.1576255000000000 10.4875665399999995 Cu
atom 6.4780373700000000 5.2379150599999997 10.4592002399999995 Cu
atom 8.9923736900000009 5.3315530100000004 10.4703397900000006 Cu
atom 7.8667532500000004 1.3951597099999999 12.6521295499999997 Cu
atom 2.4032688900000001 1.7800904799999999 12.7175778000000008 Cu
atom 5.1088654599999996 1.4438310200000000 12.8078568100000005 Cu
atom 8.9263644800000002 3.9060702100000002 12.4931798599999997 Cu
atom 3.9285723099999998 3.7258742200000001 12.6540705300000003 Cu
atom 6.4683861800000004 3.8403048599999998 12.6828421500000008 Cu
atom 10.5039695599999998 6.0064901600000002 12.6395174899999994 Cu
atom 5.1771376499999997 5.9340994000000000 12.7733937900000001 Cu
atom 7.6667838300000000 5.8417150099999997 12.5248359199999992 Cu
atom 3.9358514499999999 6.6637423599999996 14.6994079099999997 Cu
atom 6.4782776000000002 6.6693705200000002 14.9856036499999998 Cu
atom 5.0003448300000004 0.0231829900000000 14.8186769399999996 Cu
atom 1.2787660999999999 2.0783080500000000 14.8542439399999999 Cu
atom 3.8724227999999998 2.2622418799999999 14.9599133700000007 Cu
atom 6.4118554999999997 2.2688436799999998 14.7241165600000006 Cu
atom 2.7187853099999999 4.4139162499999998 14.5844805300000004 Cu
atom 5.1455586000000002 4.5107146100000000 14.6841218900000001 Cu
atom 7.6081602899999998 4.3323194899999997 14.7771621399999997 Cu
atom 1.1872926699999999 0.7538627700000000 17.1164595300000002 Cu
atom 3.8472526299999998 0.6473014900000000 16.9067497300000014 Cu
atom 6.3524621300000002 0.6379200800000000 16.6436096499999984 Cu
atom 2.7256556500000002 2.8888486599999998 16.9478530399999983 Cu
atom 5.1822113700000001 2.7787123700000000 17.0146633300000012 Cu
atom 8.0165830299999996 3.0428779900000000 16.8665412100000012 Cu
atom 3.9790127399999999 5.0282314399999999 16.9681551599999985 Cu
atom 6.4910203199999996 4.9696112899999996 16.9311138200000002 Cu
atom 8.9680202900000001 5.2620713500000003 16.7631734600000009 Cu
atom 7.5725938800000003 1.5388849600000001 19.0493229900000003 Cu
atom 2.5542178600000001 1.4789073699999999 19.0349945399999996 Cu
atom 4.9899124900000000 1.3574431800000000 18.9434242799999986 Cu
atom 9.1219605300000008 3.7440295600000000 18.8076532000000007 Cu
atom 3.9334738200000001 3.6598388300000000 18.9738440100000005 Cu
atom 6.3559843899999997 3.5768963600000001 18.8810715000000009 Cu
atom 10.2534637199999992 5.9665472599999996 18.8059125800000011 Cu
atom 5.0515756400000003 5.9473425300000002 19.0684648400000007 Cu
atom 7.5701413200000003 5.8499823299999996 19.0262977000000006 Cu
atom 3.9449639599999999 6.6329662699999998 21.2194547500000006 Cu
atom 6.5792170399999996 6.6830117099999997 21.1721487300000000 Cu
atom 9.0844325399999999 6.6572307700000000 21.1346871400000005 Cu
atom 1.2634916000000000 2.0768499500000002 20.8557308200000016 Cu
atom 3.8884223000000002 2.1562013900000001 21.1648090099999990 Cu
atom 6.3244576199999996 2.1842453399999999 21.1226130499999982 Cu
atom 10.2651052400000005 4.4632363200000000 20.9823716199999986 Cu
atom 5.1821093600000001 4.4735741300000003 21.2894699100000011 Cu
atom 7.6104521800000002 4.3317599400000004 20.8062785900000016 Cu
atom 1.3783898999999999 0.6816133300000000 23.0356132000000002 Cu
atom 3.7071033999999998 0.7679579300000000 23.1868308100000000 Cu
atom 6.4697244600000001 0.5984695799999999 23.0886950900000016 Cu
atom 2.6951475800000000 2.9113052599999998 23.1948746600000000 Cu
atom 5.2454581600000001 2.9878142200000002 23.2005519299999996 Cu
atom 7.8935362099999997 3.0559772600000001 23.4514909200000012 Cu
atom 3.9455144099999999 5.3111392500000001 23.2162761099999990 Cu
atom 6.5356951399999996 5.1604202099999998 23.2172177099999999 Cu
atom 9.1817241799999998 5.2874433800000000 23.0420668100000015 Cu
atom 7.6110993599999999 1.3365407600000001 25.2257390100000016 Cu
atom 2.4453531000000002 1.4153682500000000 25.2916768300000001 Cu
atom 5.1737038799999997 1.4913367399999999 25.4297668600000009 Cu
atom 8.9156002900000004 3.7415013500000001 25.4620903299999988 Cu
atom 3.9307042299999999 3.7997835499999999 25.3392798399999997 Cu
atom 6.5248802000000001 3.9607396200000000 25.2515406599999999 Cu
atom 10.3357324399999992 6.0773747900000004 25.3610234900000009 Cu
atom 5.1409591499999996 6.0241982600000004 25.3992845900000006 Cu
atom 7.6699804499999997 6.0738885399999996 25.3537634199999999 Cu
atom 3.8819742599999998 6.6916380400000000 27.4750023200000015 Cu
atom 2.7813165199999998 0.0711081800000000 27.6041260199999989 Cu
atom 9.0891977199999996 6.5983296800000000 27.4573814300000016 Cu
atom 1.2994501400000000 2.0757485999999998 27.4033287600000008 Cu
atom 3.8660458400000000 2.4435201000000002 27.4298506099999990 Cu
atom 6.5195633400000004 2.4542542300000001 27.2764252499999991 Cu
atom 10.2437676100000008 4.4389659899999998 27.4505823500000012 Cu
atom 5.1502937800000002 4.5863204299999998 27.2814345299999985 Cu
atom 7.8635694599999999 4.5633381599999998 27.6545846100000006 Cu
atom 1.2967538400000000 0.6751544000000000 29.4792438200000007 Cu
atom 4.1037712300000004 0.8743308600000000 29.5095134899999998 Cu
atom 6.4935320200000000 0.7650118500000000 29.4797826699999987 Cu
atom 2.6887765400000001 2.9678122000000000 29.6450068400000006 Cu
atom 5.3854663399999998 3.1295012899999999 29.4350887499999985 Cu
atom 7.9624207000000000 2.9763536099999999 29.5259913900000015 Cu
atom 3.7393467899999999 5.2508569200000004 29.4143273699999988 Cu
atom 6.5534695599999999 5.3330270200000003 29.3510758600000017 Cu
atom 8.9389304700000007 5.1399257800000004 29.7021458299999992 Cu
atom 7.6681973899999996 1.5103080200000001 31.6301101500000001 Cu
atom 2.5080912000000000 1.4755081600000000 31.4748417799999984 Cu
atom 5.1475199500000004 1.6445229400000001 31.4763217600000011 Cu
atom 8.9417319200000005 3.6531734700000000 31.7055162800000012 Cu
atom 3.8156352700000000 3.8350116000000001 31.5248241900000004 Cu
atom 6.4729544399999996 3.6336313300000000 31.7023569599999995 Cu
atom 10.4134434999999996 6.0990194000000004 31.5503717799999990 Cu
atom 5.0751552000000002 5.8489217599999996 31.6366275100000003 Cu
atom 7.7052824299999996 6.1003456500000004 31.5484406300000018 Cu
atom 0.1286204700000000 0.0517485300000000 33.7150439300000002 Cu
atom 6.4859593200000001 6.6627299899999999 33.7071762500000034 Cu
atom 9.1985265100000007 6.5646316899999997 33.6487983399999990 Cu
atom 8.9518228000000004 2.1639703400000001 33.6911746999999977 Cu
atom 3.7446222400000000 2.1957785300000001 33.7355711299999967 Cu
atom 6.3745862000000004 2.1654069200000001 33.7225961299999994 Cu
atom 2.5353327299999999 4.3012792099999997 33.8613978400000022 Cu
atom 4.9313188700000001 4.2508715600000002 33.6391675200000009 Cu
atom 7.5862907799999997 4.2228411000000001 33.6610970099999989 Cu
atom 1.3060247100000000 0.5435714699999999 36.0212837500000020 Cu
atom 4.0374179100000003 0.3787841100000000 35.7961167400000022 Cu
atom 6.3272224799999996 0.5876084200000000 35.8959278999999967 Cu
atom 2.4888160899999998 2.8943283399999999 35.9840035799999995 Cu
atom 5.1161084199999998 3.1304054099999998 35.8612940499999979 Cu
atom 7.7150566500000002 2.7906670700000000 35.7042203000000029 Cu
atom 3.8228099599999998 4.9503810699999997 35.8469737799999990 Cu
atom 6.4696757600000003 5.1510913800000004 35.7660752900000034 Cu
atom 8.9534946699999995 5.0980256400000004 35.9289826799999972 Cu
atom 7.7803275999999997 1.4309455600000001 38.1091863999999987 Cu
atom 2.6855427999999999 1.6050180700000001 38.0167282099999966 Cu
atom 5.1443608599999999 1.6597970200000001 37.9684108000000009 Cu
atom 8.9195203999999997 3.7914319600000002 38.1275072600000016 Cu
atom 3.6420747000000002 3.7614414900000002 37.9893248600000035 Cu
atom 6.5607108500000004 3.5633955099999999 37.7689097299999972 Cu
atom 10.2921347399999998 6.0809031899999999 38.0642287399999972 Cu
atom 4.9975705499999998 5.9327475700000001 38.0313799899999978 Cu
atom 7.7177894000000000 5.9865679800000002 37.8851273200000023 Cu
atom 7.5199295199999998 0.0069557300000000 40.3519904600000032 Cu
atom 6.3695314400000003 6.6437933999999998 40.1560532499999994 Cu
atom 5.2172361299999999 0.1259754100000000 40.1181572400000022 Cu
atom 8.9610054399999992 2.1345620400000000 40.1669181999999978 Cu
atom 3.7161319200000000 2.0517456500000000 40.0538550599999965 Cu
atom 6.3905260500000001 2.2683728099999998 40.1052500899999984 Cu
atom 10.1237958999999993 4.6006609300000001 40.0349962900000023 Cu
atom 5.0228075199999997 4.4045982400000003 39.9526320200000029 Cu
atom 7.6633839699999999 4.5261203400000003 40.0301293999999999 Cu
atom 5.8115692150000005 3.3553110500000001 47.0000000000000000 H
atom 5.1731647321608119 2.9867280500572093 47.0000000000000000 H