#=======================================================
# FHI-aims file: cu111_8x8_925K_ace.in
# Created using the Atomic Simulation Environment (ASE)
# Sun Mar 26 13:52:03 2023
#=======================================================
lattice_vector 20.6633572000000001 0.0000000000000000 0.0000000000000000 
lattice_vector 10.3316786000000000 17.8949922599999987 0.0000000000000000 
lattice_vector 0.0000000000000000 0.0000000000000000 100.5447253199999977 
atom 1.2914598300000000 0.7456246800000000 0.0000000000000000 Cu
    constrain_relaxation .true.
atom 3.8743794800000000 0.7456246800000000 0.0000000000000000 Cu
    constrain_relaxation .true.
atom 6.4572991300000000 0.7456246800000000 0.0000000000000000 Cu
    constrain_relaxation .true.
atom 9.0402187800000000 0.7456246800000000 0.0000000000000000 Cu
    constrain_relaxation .true.
atom 2.5829196500000000 2.9824987100000002 0.0000000000000000 Cu
    constrain_relaxation .true.
atom 5.1658393000000000 2.9824987100000002 0.0000000000000000 Cu
    constrain_relaxation .true.
atom 7.7487589500000000 2.9824987100000002 0.0000000000000000 Cu
    constrain_relaxation .true.
atom 10.3316786000000000 2.9824987100000002 0.0000000000000000 Cu
    constrain_relaxation .true.
atom 3.8743794800000000 5.2193727399999998 0.0000000000000000 Cu
    constrain_relaxation .true.
atom 6.4572991300000000 5.2193727399999998 0.0000000000000000 Cu
    constrain_relaxation .true.
atom 9.0402187800000000 5.2193727399999998 0.0000000000000000 Cu
    constrain_relaxation .true.
atom 11.6231384299999991 5.2193727399999998 0.0000000000000000 Cu
    constrain_relaxation .true.
atom 5.1658393000000000 7.4562467799999999 0.0000000000000000 Cu
    constrain_relaxation .true.
atom 7.7487589500000000 7.4562467799999999 0.0000000000000000 Cu
    constrain_relaxation .true.
atom 10.3316786000000000 7.4562467799999999 0.0000000000000000 Cu
    constrain_relaxation .true.
atom 12.9145982499999992 7.4562467799999999 0.0000000000000000 Cu
    constrain_relaxation .true.
atom 16.7889777299999992 9.6931208099999999 0.0000000000000000 Cu
    constrain_relaxation .true.
atom 19.3718973800000001 9.6931208099999999 0.0000000000000000 Cu
    constrain_relaxation .true.
atom 21.9548170300000010 9.6931208099999999 0.0000000000000000 Cu
    constrain_relaxation .true.
atom 24.5377366799999983 9.6931208099999999 0.0000000000000000 Cu
    constrain_relaxation .true.
atom 18.0804375499999992 11.9299948400000009 0.0000000000000000 Cu
    constrain_relaxation .true.
atom 20.6633572000000001 11.9299948400000009 0.0000000000000000 Cu
    constrain_relaxation .true.
atom 23.2462768500000010 11.9299948400000009 0.0000000000000000 Cu
    constrain_relaxation .true.
atom 25.8291964999999983 11.9299948400000009 0.0000000000000000 Cu
    constrain_relaxation .true.
atom 19.3718973800000001 14.1668688700000001 0.0000000000000000 Cu
    constrain_relaxation .true.
atom 21.9548170300000010 14.1668688700000001 0.0000000000000000 Cu
    constrain_relaxation .true.
atom 24.5377366799999983 14.1668688700000001 0.0000000000000000 Cu
    constrain_relaxation .true.
atom 27.1206563299999992 14.1668688700000001 0.0000000000000000 Cu
    constrain_relaxation .true.
atom 20.6633572000000001 16.4037429099999983 0.0000000000000000 Cu
    constrain_relaxation .true.
atom 23.2462768500000010 16.4037429099999983 0.0000000000000000 Cu
    constrain_relaxation .true.
atom 25.8291964999999983 16.4037429099999983 0.0000000000000000 Cu
    constrain_relaxation .true.
atom 28.4121161499999992 16.4037429099999983 0.0000000000000000 Cu
    constrain_relaxation .true.
atom 11.6231384299999991 0.7456246800000000 0.0000000000000000 Cu
    constrain_relaxation .true.
atom 14.2060580800000000 0.7456246800000000 0.0000000000000000 Cu
    constrain_relaxation .true.
atom 16.7889777299999992 0.7456246800000000 0.0000000000000000 Cu
    constrain_relaxation .true.
atom 19.3718973800000001 0.7456246800000000 0.0000000000000000 Cu
    constrain_relaxation .true.
atom 12.9145982499999992 2.9824987100000002 0.0000000000000000 Cu
    constrain_relaxation .true.
atom 15.4975179000000001 2.9824987100000002 0.0000000000000000 Cu
    constrain_relaxation .true.
atom 18.0804375499999992 2.9824987100000002 0.0000000000000000 Cu
    constrain_relaxation .true.
atom 20.6633572000000001 2.9824987100000002 0.0000000000000000 Cu
    constrain_relaxation .true.
atom 14.2060580800000000 5.2193727399999998 0.0000000000000000 Cu
    constrain_relaxation .true.
atom 16.7889777299999992 5.2193727399999998 0.0000000000000000 Cu
    constrain_relaxation .true.
atom 19.3718973800000001 5.2193727399999998 0.0000000000000000 Cu
    constrain_relaxation .true.
atom 21.9548170300000010 5.2193727399999998 0.0000000000000000 Cu
    constrain_relaxation .true.
atom 15.4975179000000001 7.4562467799999999 0.0000000000000000 Cu
    constrain_relaxation .true.
atom 18.0804375499999992 7.4562467799999999 0.0000000000000000 Cu
    constrain_relaxation .true.
atom 20.6633572000000001 7.4562467799999999 0.0000000000000000 Cu
    constrain_relaxation .true.
atom 23.2462768500000010 7.4562467799999999 0.0000000000000000 Cu
    constrain_relaxation .true.
atom 6.4572991300000000 9.6931208099999999 0.0000000000000000 Cu
    constrain_relaxation .true.
atom 9.0402187800000000 9.6931208099999999 0.0000000000000000 Cu
    constrain_relaxation .true.
atom 11.6231384299999991 9.6931208099999999 0.0000000000000000 Cu
    constrain_relaxation .true.
atom 14.2060580800000000 9.6931208099999999 0.0000000000000000 Cu
    constrain_relaxation .true.
atom 7.7487589500000000 11.9299948400000009 0.0000000000000000 Cu
    constrain_relaxation .true.
atom 10.3316786000000000 11.9299948400000009 0.0000000000000000 Cu
    constrain_relaxation .true.
atom 12.9145982499999992 11.9299948400000009 0.0000000000000000 Cu
    constrain_relaxation .true.
atom 15.4975179000000001 11.9299948400000009 0.0000000000000000 Cu
    constrain_relaxation .true.
atom 9.0402187800000000 14.1668688700000001 0.0000000000000000 Cu
    constrain_relaxation .true.
atom 11.6231384299999991 14.1668688700000001 0.0000000000000000 Cu
    constrain_relaxation .true.
atom 14.2060580800000000 14.1668688700000001 0.0000000000000000 Cu
    constrain_relaxation .true.
atom 16.7889777299999992 14.1668688700000001 0.0000000000000000 Cu
    constrain_relaxation .true.
atom 10.3316786000000000 16.4037429099999983 0.0000000000000000 Cu
    constrain_relaxation .true.
atom 12.9145982499999992 16.4037429099999983 0.0000000000000000 Cu
    constrain_relaxation .true.
atom 15.4975179000000001 16.4037429099999983 0.0000000000000000 Cu
    constrain_relaxation .true.
atom 18.0804375499999992 16.4037429099999983 0.0000000000000000 Cu
    constrain_relaxation .true.
atom 0.0000000000000000 1.4912493600000001 2.1089450599999999 Cu
    constrain_relaxation .true.
atom 2.5829196500000000 1.4912493600000001 2.1089450599999999 Cu
    constrain_relaxation .true.
atom 5.1658393000000000 1.4912493600000001 2.1089450599999999 Cu
    constrain_relaxation .true.
atom 7.7487589500000000 1.4912493600000001 2.1089450599999999 Cu
    constrain_relaxation .true.
atom 1.2914598300000000 3.7281233899999999 2.1089450599999999 Cu
    constrain_relaxation .true.
atom 3.8743794800000000 3.7281233899999999 2.1089450599999999 Cu
    constrain_relaxation .true.
atom 6.4572991300000000 3.7281233899999999 2.1089450599999999 Cu
    constrain_relaxation .true.
atom 9.0402187800000000 3.7281233899999999 2.1089450599999999 Cu
    constrain_relaxation .true.
atom 2.5829196500000000 5.9649974200000004 2.1089450599999999 Cu
    constrain_relaxation .true.
atom 5.1658393000000000 5.9649974200000004 2.1089450599999999 Cu
    constrain_relaxation .true.
atom 7.7487589500000000 5.9649974200000004 2.1089450599999999 Cu
    constrain_relaxation .true.
atom 10.3316786000000000 5.9649974200000004 2.1089450599999999 Cu
    constrain_relaxation .true.
atom 3.8743794800000000 8.2018714500000005 2.1089450599999999 Cu
    constrain_relaxation .true.
atom 6.4572991300000000 8.2018714500000005 2.1089450599999999 Cu
    constrain_relaxation .true.
atom 9.0402187800000000 8.2018714500000005 2.1089450599999999 Cu
    constrain_relaxation .true.
atom 11.6231384299999991 8.2018714500000005 2.1089450599999999 Cu
    constrain_relaxation .true.
atom 15.4975179000000001 10.4387454900000005 2.1089450599999999 Cu
    constrain_relaxation .true.
atom 18.0804375499999992 10.4387454900000005 2.1089450599999999 Cu
    constrain_relaxation .true.
atom 20.6633572000000001 10.4387454900000005 2.1089450599999999 Cu
    constrain_relaxation .true.
atom 23.2462768500000010 10.4387454900000005 2.1089450599999999 Cu
    constrain_relaxation .true.
atom 16.7889777299999992 12.6756195199999997 2.1089450599999999 Cu
    constrain_relaxation .true.
atom 19.3718973800000001 12.6756195199999997 2.1089450599999999 Cu
    constrain_relaxation .true.
atom 21.9548170300000010 12.6756195199999997 2.1089450599999999 Cu
    constrain_relaxation .true.
atom 24.5377366799999983 12.6756195199999997 2.1089450599999999 Cu
    constrain_relaxation .true.
atom 18.0804375499999992 14.9124935500000007 2.1089450599999999 Cu
    constrain_relaxation .true.
atom 20.6633572000000001 14.9124935500000007 2.1089450599999999 Cu
    constrain_relaxation .true.
atom 23.2462768500000010 14.9124935500000007 2.1089450599999999 Cu
    constrain_relaxation .true.
atom 25.8291964999999983 14.9124935500000007 2.1089450599999999 Cu
    constrain_relaxation .true.
atom 19.3718973800000001 17.1493675799999998 2.1089450599999999 Cu
    constrain_relaxation .true.
atom 21.9548170300000010 17.1493675799999998 2.1089450599999999 Cu
    constrain_relaxation .true.
atom 24.5377366799999983 17.1493675799999998 2.1089450599999999 Cu
    constrain_relaxation .true.
atom 27.1206563299999992 17.1493675799999998 2.1089450599999999 Cu
    constrain_relaxation .true.
atom 10.3316786000000000 1.4912493600000001 2.1089450599999999 Cu
    constrain_relaxation .true.
atom 12.9145982499999992 1.4912493600000001 2.1089450599999999 Cu
    constrain_relaxation .true.
atom 15.4975179000000001 1.4912493600000001 2.1089450599999999 Cu
    constrain_relaxation .true.
atom 18.0804375499999992 1.4912493600000001 2.1089450599999999 Cu
    constrain_relaxation .true.
atom 11.6231384299999991 3.7281233899999999 2.1089450599999999 Cu
    constrain_relaxation .true.
atom 14.2060580800000000 3.7281233899999999 2.1089450599999999 Cu
    constrain_relaxation .true.
atom 16.7889777299999992 3.7281233899999999 2.1089450599999999 Cu
    constrain_relaxation .true.
atom 19.3718973800000001 3.7281233899999999 2.1089450599999999 Cu
    constrain_relaxation .true.
atom 12.9145982499999992 5.9649974200000004 2.1089450599999999 Cu
    constrain_relaxation .true.
atom 15.4975179000000001 5.9649974200000004 2.1089450599999999 Cu
    constrain_relaxation .true.
atom 18.0804375499999992 5.9649974200000004 2.1089450599999999 Cu
    constrain_relaxation .true.
atom 20.6633572000000001 5.9649974200000004 2.1089450599999999 Cu
    constrain_relaxation .true.
atom 14.2060580800000000 8.2018714500000005 2.1089450599999999 Cu
    constrain_relaxation .true.
atom 16.7889777299999992 8.2018714500000005 2.1089450599999999 Cu
    constrain_relaxation .true.
atom 19.3718973800000001 8.2018714500000005 2.1089450599999999 Cu
    constrain_relaxation .true.
atom 21.9548170300000010 8.2018714500000005 2.1089450599999999 Cu
    constrain_relaxation .true.
atom 5.1658393000000000 10.4387454900000005 2.1089450599999999 Cu
    constrain_relaxation .true.
atom 7.7487589500000000 10.4387454900000005 2.1089450599999999 Cu
    constrain_relaxation .true.
atom 10.3316786000000000 10.4387454900000005 2.1089450599999999 Cu
    constrain_relaxation .true.
atom 12.9145982499999992 10.4387454900000005 2.1089450599999999 Cu
    constrain_relaxation .true.
atom 6.4572991300000000 12.6756195199999997 2.1089450599999999 Cu
    constrain_relaxation .true.
atom 9.0402187800000000 12.6756195199999997 2.1089450599999999 Cu
    constrain_relaxation .true.
atom 11.6231384299999991 12.6756195199999997 2.1089450599999999 Cu
    constrain_relaxation .true.
atom 14.2060580800000000 12.6756195199999997 2.1089450599999999 Cu
    constrain_relaxation .true.
atom 7.7487589500000000 14.9124935500000007 2.1089450599999999 Cu
    constrain_relaxation .true.
atom 10.3316786000000000 14.9124935500000007 2.1089450599999999 Cu
    constrain_relaxation .true.
atom 12.9145982499999992 14.9124935500000007 2.1089450599999999 Cu
    constrain_relaxation .true.
atom 15.4975179000000001 14.9124935500000007 2.1089450599999999 Cu
    constrain_relaxation .true.
atom 9.0402187800000000 17.1493675799999998 2.1089450599999999 Cu
    constrain_relaxation .true.
atom 11.6231384299999991 17.1493675799999998 2.1089450599999999 Cu
    constrain_relaxation .true.
atom 14.2060580800000000 17.1493675799999998 2.1089450599999999 Cu
    constrain_relaxation .true.
atom 16.7889777299999992 17.1493675799999998 2.1089450599999999 Cu
    constrain_relaxation .true.
atom 10.3933056500000003 17.8153504699999985 4.1134791899999996 Cu
atom 2.6637480800000000 0.0137287100000000 4.0907149100000000 Cu
atom 15.6685793100000001 17.7320618699999990 4.1598196200000004 Cu
atom 18.0058422900000004 17.5900613099999994 4.3034438200000000 Cu
atom 21.9758490600000016 2.2827637699999999 4.2019466999999997 Cu
atom 3.8454510800000001 2.3116238899999999 4.2036232900000003 Cu
atom 6.4404283800000002 2.6445932800000000 4.2280168199999997 Cu
atom 9.0880693800000003 2.3140790800000000 4.0631805200000004 Cu
atom 2.6872152499999999 4.5511410200000002 4.2539281400000002 Cu
atom 5.1617801700000001 4.6966487800000003 4.0899321400000002 Cu
atom 7.7883635699999996 4.8684942400000004 4.1866379199999999 Cu
atom 10.2978727299999999 4.6338436099999996 4.3073672500000004 Cu
atom 3.9472362699999999 6.7018864599999999 4.1455675500000000 Cu
atom 6.4204461600000000 6.9277825100000001 4.3218849900000000 Cu
atom 9.1907361800000000 6.8303088699999996 4.1641890300000002 Cu
atom 11.6976173100000000 6.8311176400000004 3.9682693100000002 Cu
atom 20.7437179900000004 17.7741107800000009 4.0743086799999997 Cu
atom 12.8297460099999991 0.1824134800000000 4.1647308100000000 Cu
atom 15.5286136700000004 0.0102975600000000 4.3697205700000001 Cu
atom 18.3023814400000013 0.1430437600000000 4.4543761399999999 Cu
atom 11.9231701300000008 2.3897822899999999 4.1969296900000002 Cu
atom 14.3278118800000005 2.3489490000000002 4.3703900999999998 Cu
atom 16.6198895299999982 2.1570287399999999 4.3389828799999997 Cu
atom 19.4024217300000004 2.2135430700000001 4.2748309500000001 Cu
atom 13.2590172800000001 4.3654419899999999 4.2312102800000000 Cu
atom 15.6332884199999995 4.5459024499999998 4.2617347199999998 Cu
atom 18.0876214600000012 4.4313658900000004 4.1309836300000002 Cu
atom 20.7315050700000008 4.6793850499999996 4.2989255000000002 Cu
atom 14.1450312000000000 6.7628559900000003 4.2767948100000002 Cu
atom 16.6622133499999983 6.5909318099999998 4.2338627500000001 Cu
atom 19.4437649999999991 6.7528866200000000 4.1974868000000001 Cu
atom 21.9567303000000003 6.8856778199999997 4.2674766100000001 Cu
atom 25.6095578400000008 8.9311555400000007 4.0768182399999997 Cu
atom 7.8259321000000002 9.0953704000000002 4.0507244699999996 Cu
atom 10.6753048800000006 8.9727292399999996 4.2458724600000002 Cu
atom 13.1816210900000002 9.0802960800000001 4.0366363500000002 Cu
atom 6.5436219600000003 11.2578537999999995 4.1035872800000002 Cu
atom 9.3065867999999998 11.4200188699999998 4.2465175300000002 Cu
atom 11.8796521300000002 11.2407533999999991 4.3172675900000002 Cu
atom 14.3551241800000007 11.0649840699999995 4.1657131600000001 Cu
atom 28.2155320399999994 13.5692523800000000 4.1381503200000003 Cu
atom 10.7799667499999998 13.6645926600000003 4.5413673399999999 Cu
atom 13.1169115000000005 13.4131402400000006 4.2956704999999999 Cu
atom 15.5670042100000003 13.2633603200000003 4.1342799499999998 Cu
atom 29.6717595900000006 15.6949325900000005 4.2201144800000003 Cu
atom 11.6592770899999998 15.8709752799999997 4.4711495399999999 Cu
atom 14.3350768700000000 15.5589898699999996 4.4150405599999996 Cu
atom 16.8264097399999990 15.5700370899999996 4.1591014099999999 Cu
atom 15.5273509300000008 9.1514042399999997 4.2614071300000003 Cu
atom 18.2515683099999997 8.8016183399999992 4.1307246099999997 Cu
atom 20.9307216199999999 9.2236102300000002 4.1697107000000004 Cu
atom 23.1023104400000001 9.1346317100000007 4.2229660300000003 Cu
atom 16.6511716400000012 11.1488959500000000 4.2129237100000001 Cu
atom 19.0497062799999988 11.0576749400000001 4.2854466300000000 Cu
atom 22.1644740300000009 11.4045536799999994 4.1118685199999998 Cu
atom 24.5595430199999996 11.1097333999999996 4.0126413599999999 Cu
atom 18.1062339299999984 13.4251132700000007 4.2754274800000003 Cu
atom 20.6624094499999984 13.1725705499999997 4.1906418399999996 Cu
atom 23.3668076700000000 13.6136324099999992 4.4373227999999996 Cu
atom 25.7305146899999997 13.6290152199999994 4.1395941499999998 Cu
atom 19.2465203000000002 15.4338403399999997 4.3645728400000001 Cu
atom 21.9936514299999999 15.6176558500000002 3.9443869600000001 Cu
atom 24.4178540700000006 15.6671149199999995 4.1576488400000002 Cu
atom 27.3191054899999983 15.9346322899999997 4.0277976000000004 Cu
atom 1.2760386900000000 0.7039793100000000 6.3056686400000004 Cu
atom 4.0344117900000001 0.7150489900000000 6.0318244800000000 Cu
atom 6.6992366399999996 0.9502574800000000 6.0487291200000000 Cu
atom 9.1588487799999996 0.5447242500000000 6.0972486500000000 Cu
atom 2.5679639100000000 2.9472656399999999 6.4280585300000004 Cu
atom 5.3566382800000003 2.9130013500000000 6.4079149900000001 Cu
atom 8.0360596799999993 3.0644743600000002 6.3234889100000000 Cu
atom 10.5739682199999994 2.7417812499999998 6.2029704800000003 Cu
atom 3.8360004999999999 5.3392385999999998 6.5151569499999997 Cu
atom 6.5316417700000002 5.3329402500000000 6.2730962799999999 Cu
atom 9.2605087499999996 5.2035619999999998 6.4697158799999999 Cu
atom 11.8353600300000004 5.2134293600000001 5.9213215899999998 Cu
atom 5.1004831099999999 7.4576575500000004 6.3380002700000002 Cu
atom 7.6917969599999996 7.5668244199999997 6.3421178700000000 Cu
atom 10.6078387799999998 7.6465514099999998 6.2565935000000001 Cu
atom 13.0562901000000000 7.5866099000000000 6.4752964500000001 Cu
atom 11.6805377200000002 0.5474167500000000 6.4124680800000000 Cu
atom 14.0865388700000000 0.8450222900000000 6.2717696399999996 Cu
atom 16.7072271699999995 0.8971889700000000 6.4008736099999997 Cu
atom 19.2006016399999986 0.8009992700000000 6.5752883799999999 Cu
atom 12.9286592400000000 3.3041092500000002 6.7742066999999997 Cu
atom 15.4813238099999992 3.0015003899999999 6.4434834700000003 Cu
atom 18.0191846899999994 3.1135191500000001 6.4178708999999996 Cu
atom 20.6129702899999998 2.9828048300000001 6.3113201900000000 Cu
atom 14.3366549100000000 5.3293068200000002 6.2719456700000000 Cu
atom 17.0503629399999994 5.3757394800000000 6.4570173999999998 Cu
atom 19.4865090700000003 5.1199312499999996 6.4109109300000000 Cu
atom 21.9945772300000009 5.2592162399999998 6.5666749199999996 Cu
atom 15.6580165600000001 7.5618032199999998 6.3372100700000003 Cu
atom 18.1059188999999989 7.4910354300000002 6.2740364399999997 Cu
atom 20.6529104900000000 7.4427419800000001 6.7700421799999999 Cu
atom 23.2160231199999991 7.4247130600000002 6.3741252399999997 Cu
atom 6.4322684600000004 9.7493556600000009 6.2138909800000004 Cu
atom 9.1233898300000007 9.8991925999999992 6.3262339399999998 Cu
atom 11.7676453500000004 9.8189794500000005 6.7787272800000000 Cu
atom 14.4212903099999998 9.5691013999999992 6.6049404799999998 Cu
atom 7.9556728999999997 11.9713356100000006 6.5297445900000000 Cu
atom 10.6376046800000008 12.0479056300000007 6.5396768800000000 Cu
atom 13.0088892600000001 11.9681345199999996 6.4264929400000002 Cu
atom 15.3970222099999994 12.1873086900000001 6.5359005000000003 Cu
atom 8.8483016100000000 14.2868714499999996 6.1850871700000001 Cu
atom 11.6857308300000007 14.2536150999999993 6.5521104100000001 Cu
atom 14.3227028099999991 14.1556008400000000 6.4761505000000001 Cu
atom 16.6959162399999990 14.2040642899999998 6.6210564300000003 Cu
atom 10.3427901200000001 16.3555677499999987 6.5194524700000001 Cu
atom 12.7737959100000005 16.6130369500000015 6.5442790000000004 Cu
atom 15.6845234799999993 16.4967090100000000 6.3556570099999998 Cu
atom 18.1855704600000010 16.0533422600000009 6.3556820099999998 Cu
atom 17.0592565399999998 9.7501798199999996 6.6510345099999997 Cu
atom 19.4438442299999998 9.5044260000000005 6.2947534599999999 Cu
atom 21.9078538099999989 9.9560655199999992 6.3210831299999999 Cu
atom 24.6178069400000012 9.6184108699999999 6.0692925999999998 Cu
atom 17.8176507099999988 12.0005720999999994 6.4318676500000000 Cu
atom 20.5556643699999988 11.9593744999999991 6.5406864300000001 Cu
atom 23.4488262899999995 11.8917669499999992 6.6258223899999997 Cu
atom 26.0997866899999984 11.9578085200000004 6.5673989099999996 Cu
atom 19.3312919399999998 13.8537392199999996 6.2712352500000001 Cu
atom 21.8836149800000008 14.0379616800000004 6.1735683000000003 Cu
atom 24.6559124199999999 14.2254920100000000 6.4485256499999997 Cu
atom 27.0035953900000010 14.4241390299999992 6.2677570600000001 Cu
atom 20.5409685999999994 16.1612635000000004 6.0904818100000000 Cu
atom 23.2456076299999985 16.2771661099999996 5.9683777899999999 Cu
atom 25.7924597800000015 16.4698542199999984 6.3265203600000000 Cu
atom 28.3122787500000008 16.5578077400000012 6.2963788500000000 Cu
atom 20.5899947800000014 1.3025924099999999 8.4859886099999997 Cu
atom 2.5388137199999998 1.5040037300000000 8.4161759800000002 Cu
atom 5.1717668300000001 1.4731013100000001 8.2563568000000007 Cu
atom 7.8196909899999998 1.7232818599999999 8.3782595000000004 Cu
atom 22.0521057899999988 3.7048817199999999 8.4957156499999993 Cu
atom 4.0076363400000004 3.8743129100000000 8.5739061700000008 Cu
atom 6.5038277799999999 3.7342450899999999 8.2228355099999995 Cu
atom 9.3020283999999993 3.8788539800000001 8.5035160300000001 Cu
atom 23.3460171699999997 5.9040876200000003 8.6268787499999995 Cu
atom 5.1775313000000001 6.0496347999999998 8.4951581199999993 Cu
atom 7.6829468099999998 5.8503757800000002 8.4301911000000000 Cu
atom 10.2209373899999996 6.2483568299999996 8.6062979300000002 Cu
atom 24.4717027199999997 8.1709675399999995 8.5011211699999993 Cu
atom 6.4540302100000000 8.1184943100000009 8.7251511399999995 Cu
atom 9.1643530999999996 8.2075708699999996 8.4511449200000008 Cu
atom 11.3866274500000006 8.4436213599999999 8.7823846000000003 Cu
atom 10.4683342100000001 1.8427408000000001 8.6847863000000007 Cu
atom 13.0375269700000000 1.7428087200000000 8.6383878999999997 Cu
atom 15.5887696699999996 1.5801699100000000 8.4663547200000000 Cu
atom 18.0579433599999994 1.5343843900000000 8.3537811200000007 Cu
atom 11.4530695100000006 4.2743732799999998 8.4445047199999994 Cu
atom 14.1242415900000005 4.0243498799999999 8.6141028800000008 Cu
atom 17.0679616600000017 3.7616081399999999 8.4756318900000007 Cu
atom 19.5160506299999987 3.6150694300000001 8.5880952300000004 Cu
atom 12.8189951000000004 6.3705289900000004 8.3765646100000009 Cu
atom 15.5919988699999994 5.9757105599999996 8.4110169199999998 Cu
atom 18.5277065400000005 6.0059885900000003 8.4797937500000007 Cu
atom 20.9567772599999991 5.8048827200000002 8.8601240099999998 Cu
atom 14.1730192800000001 8.3657124899999999 8.5780384699999992 Cu
atom 16.7810563399999992 7.9907596800000000 8.6079112299999991 Cu
atom 19.3088721499999991 8.1568961600000005 8.7625800799999993 Cu
atom 21.9640438399999987 8.1095149499999994 8.5975277000000006 Cu
atom 25.8364007600000001 10.1480787699999997 8.2212096399999997 Cu
atom 7.4981056199999996 10.5350818799999999 8.5327127300000001 Cu
atom 9.9452242700000006 10.6217955699999997 8.5326551500000001 Cu
atom 13.0308977499999994 10.4759976300000002 8.7288613200000000 Cu
atom 27.1806568700000000 12.7549283500000001 8.4744237600000005 Cu
atom 8.9116552000000002 12.7983490199999999 8.6592086100000003 Cu
atom 11.8384408099999998 12.7100047600000003 8.5581230900000005 Cu
atom 14.4899449899999997 12.4371550499999994 8.8342817500000006 Cu
atom 28.1563981500000011 15.2269605299999995 8.3409356199999998 Cu
atom 10.4183693900000005 14.9381222000000005 8.6086503800000003 Cu
atom 12.9733744400000006 15.0933769099999999 8.6545263499999994 Cu
atom 15.5123220600000007 15.0388962700000004 8.6087813700000009 Cu
atom 29.4124839300000005 17.3330049099999997 8.4247997399999992 Cu
atom 11.3898918699999996 16.9744766499999997 8.4578700399999995 Cu
atom 14.2315157699999997 17.2724587099999987 8.1106010699999995 Cu
atom 16.9986037600000017 17.2807525099999992 8.4306812000000004 Cu
atom 15.5817207799999995 10.2922692599999994 8.4697094800000006 Cu
atom 18.0082612500000003 10.3458685100000007 8.7314039700000006 Cu
atom 20.4872793500000014 10.2925984400000008 8.3015508899999997 Cu
atom 23.1869202600000008 10.1062776000000003 8.5016628500000007 Cu
atom 16.6936207500000009 12.4922418700000009 8.6645785499999999 Cu
atom 19.2612877199999986 12.5935522100000004 8.5539337000000000 Cu
atom 21.7636122900000011 12.6934448999999994 8.5800514299999993 Cu
atom 24.6886004999999997 12.2986261399999997 8.7391484300000002 Cu
atom 17.9022311499999986 15.0152043299999995 8.7735079400000000 Cu
atom 20.3310653099999996 14.9115868799999998 8.6412064900000001 Cu
atom 23.1684178900000006 14.9240873599999997 8.4876899600000009 Cu
atom 25.4856646200000014 14.9432960099999992 8.6738322900000000 Cu
atom 19.5129869700000000 17.1834662099999989 8.3779012399999999 Cu
atom 21.8345553899999985 17.1422109800000015 8.7024603500000008 Cu
atom 24.4698274900000001 17.4889763699999996 8.3109728399999998 Cu
atom 26.8715098899999987 17.2611012399999986 8.4404443499999999 Cu
atom 30.9684815100000002 17.8796722199999998 10.6148349300000007 Cu
atom 12.9882534199999995 17.6567187899999993 10.4650791499999993 Cu
atom 15.3529980800000008 17.7553427200000016 10.7931511400000009 Cu
atom 18.0265570799999999 17.7873235399999992 10.7126851199999997 Cu
atom 1.4779906899999999 2.2628792500000001 10.6821637999999997 Cu
atom 4.1886350999999999 2.3263734199999999 10.3081164199999993 Cu
atom 6.4784534300000001 2.2064832200000000 10.3746993199999995 Cu
atom 9.0166969899999998 2.0975736100000000 10.6143198400000003 Cu
atom 2.7054439299999999 4.3721026600000004 10.6516476200000003 Cu
atom 5.2569564499999997 4.4070926400000001 10.7280625300000008 Cu
atom 7.8342169300000002 4.3733321199999997 10.4442120000000003 Cu
atom 10.4188145199999997 4.6918538900000000 10.7411665200000002 Cu
atom 4.0095902399999996 6.7241633299999997 10.6486007600000008 Cu
atom 6.7268974400000001 6.7249856200000000 10.6180140000000005 Cu
atom 9.0591900100000000 6.5582695600000003 10.7932325200000001 Cu
atom 11.8772896299999999 6.9977942300000002 10.6746986300000000 Cu
atom 10.4696506100000004 0.0701294800000000 10.7312198100000007 Cu
atom 13.0116695300000007 0.0604214600000000 10.5602898300000003 Cu
atom 15.2634998300000007 0.2070255100000000 10.7532497199999995 Cu
atom 17.8608357700000013 0.0594391600000000 10.4838180800000007 Cu
atom 11.8630250900000007 2.2403518099999999 10.9608257800000004 Cu
atom 14.3566248600000002 2.4356895500000002 10.5654022100000002 Cu
atom 16.8610517999999985 2.4496594699999998 10.5574663500000003 Cu
atom 19.2285095800000008 2.0606614099999998 10.9450577100000004 Cu
atom 12.9482124100000000 4.6336542800000000 10.6029327599999998 Cu
atom 15.5312778999999992 4.6715623800000001 10.7141235100000003 Cu
atom 18.4063925499999996 4.5122159899999996 10.6433063400000005 Cu
atom 20.9347403300000003 4.2586204299999997 10.9446376799999996 Cu
atom 14.3959775200000006 6.8705401699999999 10.3855073400000002 Cu
atom 17.0368897699999984 6.4617255399999998 10.6150736999999999 Cu
atom 19.5416745799999987 6.7974810100000003 10.6380060499999995 Cu
atom 21.9609493600000008 6.7106356800000002 10.5585070800000000 Cu
atom 5.2637032300000000 8.9267393800000008 10.6073215300000001 Cu
atom 7.5375954299999997 8.8617302799999997 11.0287554799999992 Cu
atom 10.1914501899999994 9.0656610600000000 10.8221636599999993 Cu
atom 13.1505986200000002 9.0262433699999995 10.8522131300000009 Cu
atom 6.6592074099999996 11.4294464199999997 10.8430370099999998 Cu
atom 8.8926203000000008 11.4121625699999996 10.9889753799999994 Cu
atom 11.1547958400000002 11.2893059299999994 10.4068211300000009 Cu
atom 14.1958368799999999 11.2211873900000008 10.9001889599999995 Cu
atom 28.3359639200000011 13.6063921099999998 10.6167138800000007 Cu
atom 10.4974815400000008 13.5027917700000000 10.8117405699999996 Cu
atom 13.0923598699999992 13.4060640699999993 10.7859421700000002 Cu
atom 15.6515109300000006 13.5504774900000005 10.8435184499999995 Cu
atom 9.2527364599999995 15.7739811700000008 10.3908395299999992 Cu
atom 11.6487621000000008 15.7863818499999997 10.8455294500000008 Cu
atom 14.1163001500000007 15.6121618899999994 10.5957792899999994 Cu
atom 16.8196640899999998 15.4823545500000002 11.0774537300000002 Cu
atom 15.5427932599999998 9.1532481099999998 11.1428850799999992 Cu
atom 18.0167752499999985 8.9003731899999998 10.8086189200000007 Cu
atom 20.7068879199999998 9.0270307400000007 10.5024464200000001 Cu
atom 23.2889551600000004 8.7929114500000001 11.0843052600000007 Cu
atom 16.8014216400000009 11.2477219500000007 10.9622124700000008 Cu
atom 19.2945050400000007 11.2300466399999994 10.5237716599999995 Cu
atom 21.8416628700000004 11.3657024500000006 10.5354587399999993 Cu
atom 24.5900767699999996 10.8881993599999998 10.5782631699999996 Cu
atom 18.1241489999999992 13.3066101200000002 10.8795176500000004 Cu
atom 20.4577995299999991 13.2579940000000001 10.6467045599999999 Cu
atom 23.2469054499999999 13.3902194699999999 10.3749865600000000 Cu
atom 25.8837058900000017 13.3037814799999996 10.6667766499999992 Cu
atom 19.3542797799999988 15.3871575099999998 10.9171245300000006 Cu
atom 21.8884531799999991 15.6845797900000008 10.6731842799999992 Cu
atom 24.4578278800000000 15.6341272500000006 10.7508414899999991 Cu