#=======================================================
# FHI-aims file: /home/chem/msrmnk/1_calculations/1_H_on_metals/5_ml_models/1_schnet/1_h2cu/7_adaptive_learning/1_julia_scripts/1_initial_conditions/output/1_scattering/cu110_start.in
# Created using the Atomic Simulation Environment (ASE)
# Thu Jan 27 16:15:25 2022
#=======================================================
lattice_vector 10.9583999999999993 0.0000000000000000 0.0000000000000000 
lattice_vector 0.0000000000000000 7.7487589500000000 0.0000000000000000 
lattice_vector 0.0000000000000000 0.0000000000000000 46.4572991300000027 
atom 1.8264000000000000 1.2914598300000000 0.0000000000000000 Cu
    constrain_relaxation .true.
atom 5.4791999999999996 1.2914598300000000 0.0000000000000000 Cu
    constrain_relaxation .true.
atom 9.1319999999999997 1.2914598300000000 0.0000000000000000 Cu
    constrain_relaxation .true.
atom 1.8264000000000000 3.8743794800000000 0.0000000000000000 Cu
    constrain_relaxation .true.
atom 5.4791999999999996 3.8743794800000000 0.0000000000000000 Cu
    constrain_relaxation .true.
atom 9.1319999999999997 3.8743794800000000 0.0000000000000000 Cu
    constrain_relaxation .true.
atom 1.8264000000000000 6.4572991300000000 0.0000000000000000 Cu
    constrain_relaxation .true.
atom 5.4791999999999996 6.4572991300000000 0.0000000000000000 Cu
    constrain_relaxation .true.
atom 9.1319999999999997 6.4572991300000000 0.0000000000000000 Cu
    constrain_relaxation .true.
atom 0.0000000000000000 0.0000000000000000 1.2914598300000000 Cu
    constrain_relaxation .true.
atom 3.6528000000000000 0.0000000000000000 1.2914598300000000 Cu
    constrain_relaxation .true.
atom 7.3055999999999992 0.0000000000000000 1.2914598300000000 Cu
    constrain_relaxation .true.
atom 0.0000000000000000 2.5829196500000000 1.2914598300000000 Cu
    constrain_relaxation .true.
atom 3.6528000000000000 2.5829196500000000 1.2914598300000000 Cu
    constrain_relaxation .true.
atom 7.3055999999999992 2.5829196500000000 1.2914598300000000 Cu
    constrain_relaxation .true.
atom 0.0000000000000000 5.1658393000000000 1.2914598300000000 Cu
    constrain_relaxation .true.
atom 3.6528000000000000 5.1658393000000000 1.2914598300000000 Cu
    constrain_relaxation .true.
atom 7.3055999999999992 5.1658393000000000 1.2914598300000000 Cu
    constrain_relaxation .true.
atom 1.6302444000000000 1.4996210699999999 2.6936930200000000 Cu
atom 5.2438500799999996 1.1310296300000000 2.5259625099999998 Cu
atom 9.3181232199999986 1.3897198300000000 2.6279171200000002 Cu
atom 1.7339958099999999 3.9703374800000000 2.7118192699999999 Cu
atom 5.4329989400000001 3.9151355400000001 2.5364672399999999 Cu
atom 9.0801627399999987 4.2241002200000004 2.8204019800000002 Cu
atom 1.4823451500000000 6.6653591300000006 2.6523766000000002 Cu
atom 5.3962190500000000 6.3713098400000003 2.7397247700000000 Cu
atom 9.1112022699999997 6.6546399200000002 2.7071567900000000 Cu
atom 10.6672256099999991 0.0936475500000000 3.9403245400000002 Cu
atom 3.5652985899999998 7.5401731900000000 4.0445511500000002 Cu
atom 10.8492457599999987 2.8487259500000000 3.8499054899999998 Cu
atom 3.6022836699999998 2.5270512799999998 3.7194713600000000 Cu
atom 7.3291114899999990 7.6156458899999997 3.6912031399999998 Cu
atom 7.2316665999999987 2.4105647000000001 3.6905224900000002 Cu
atom 10.6756730199999996 5.4268053500000004 3.9534567900000002 Cu
atom 3.6696626100000000 5.0804985400000007 4.0306818399999997 Cu
atom 7.2389288499999989 5.0733380500000003 3.8951925200000002 Cu
atom 1.6273579199999999 1.0955089700000000 5.1702788499999999 Cu
atom 5.3337034699999997 1.0686508299999999 5.1430959400000003 Cu
atom 1.6980023600000000 3.5758938400000000 5.3459634700000001 Cu
atom 5.6514342599999994 3.7982254200000001 5.0888393199999999 Cu
atom 8.9413484599999986 1.1830857400000001 5.1916397400000003 Cu
atom 8.6675621799999991 3.6246997599999999 5.2860462699999999 Cu
atom 1.8075576900000001 6.3540121599999999 5.2488433800000003 Cu
atom 5.4944438099999990 6.4171422900000001 5.3004059799999999 Cu
atom 8.8710282499999984 6.1707189600000003 5.3540827200000001 Cu
atom 10.6650799699999990 7.5930889800000001 6.3628291800000003 Cu
atom 3.4950405199999999 0.1614804700000000 6.5120424500000000 Cu
atom 10.8954300699999997 2.4324468399999999 6.4341479300000000 Cu
atom 3.5436514099999998 2.8902212600000001 6.4474678200000000 Cu
atom 7.4163770799999993 7.5241391200000001 6.4184937900000003 Cu
atom 6.9581287799999991 2.0992342200000000 6.2087409200000003 Cu
atom 10.3804090699999989 4.8274945100000002 6.7857403600000001 Cu
atom 3.7079722099999999 5.3272493299999999 6.5038270499999999 Cu
atom 6.8863907799999993 4.9673392800000000 6.4582662500000003 Cu