#=======================================================
# FHI-aims file: /home/chem/msrmnk/1_calculations/1_H_on_metals/5_ml_models/1_schnet/1_h2cu/7_adaptive_learning/1_julia_scripts/1_initial_conditions/output/1_scattering/cu211_start.in
# Created using the Atomic Simulation Environment (ASE)
# Wed Feb  9 18:46:16 2022
#=======================================================
lattice_vector 6.3268351899999997 0.0000000000000000 0.0000000000000000 
lattice_vector 0.0000000000000000 7.7487589500000000 0.0000000000000000 
lattice_vector 0.0000000000000000 0.0000000000000000 52.6756195199999979 
atom 4.2178901299999998 1.2914598300000000 0.0000000000000000 Cu
    constrain_relaxation .true.
atom 4.2178901299999998 3.8743794800000000 0.0000000000000000 Cu
    constrain_relaxation .true.
atom 4.2178901299999998 6.4572991300000000 0.0000000000000000 Cu
    constrain_relaxation .true.
atom 2.1089450599999999 0.0000000000000000 0.7456246800000000 Cu
    constrain_relaxation .true.
atom 2.1089450599999999 2.5829196500000000 0.7456246800000000 Cu
    constrain_relaxation .true.
atom 2.1089450599999999 5.1658393000000000 0.7456246800000000 Cu
    constrain_relaxation .true.
atom 0.0000000000000000 1.2914598300000000 1.4912493600000001 Cu
    constrain_relaxation .true.
atom 0.0000000000000000 3.8743794800000000 1.4912493600000001 Cu
    constrain_relaxation .true.
atom 0.0000000000000000 6.4572991300000000 1.4912493600000001 Cu
    constrain_relaxation .true.
atom 4.2178901299999998 0.0000000000000000 2.2368740300000001 Cu
    constrain_relaxation .true.
atom 4.2178901299999998 2.5829196500000000 2.2368740300000001 Cu
    constrain_relaxation .true.
atom 4.2178901299999998 5.1658393000000000 2.2368740300000001 Cu
    constrain_relaxation .true.
atom 2.1089450599999999 1.2914598300000000 2.9824987100000002 Cu
    constrain_relaxation .true.
atom 2.1089450599999999 3.8743794800000000 2.9824987100000002 Cu
    constrain_relaxation .true.
atom 2.1089450599999999 6.4572991300000000 2.9824987100000002 Cu
    constrain_relaxation .true.
atom 0.0000000000000000 0.0000000000000000 3.7281233899999999 Cu
    constrain_relaxation .true.
atom 0.0000000000000000 2.5829196500000000 3.7281233899999999 Cu
    constrain_relaxation .true.
atom 0.0000000000000000 5.1658393000000000 3.7281233899999999 Cu
    constrain_relaxation .true.
atom 4.0531745599999995 1.2690229300000000 4.3582415299999999 Cu
atom 4.0748047999999999 3.8890646300000000 4.4047537700000001 Cu
atom 4.4911556799999994 6.5286804299999996 4.4570827700000004 Cu
atom 2.2998475500000000 7.5067436900000004 5.5227429900000002 Cu
atom 1.9193380799999999 2.5487247599999998 5.3635308000000004 Cu
atom 1.9565394199999999 5.0147553800000004 5.3047225500000001 Cu
atom 0.0760240400000000 1.1757094100000001 5.8295362800000001 Cu
atom 6.1753247799999995 3.8426637399999999 5.8451153099999997 Cu
atom 0.0532464700000000 6.2193494099999995 6.2370968400000004 Cu
atom 4.5909240799999997 0.1730249400000000 6.7514123599999998 Cu
atom 4.2167758600000003 2.7331669199999999 6.7730458899999997 Cu
atom 4.3050224200000002 5.2831670299999995 6.7451179200000002 Cu
atom 2.4047858099999999 1.5358375300000000 7.7354299900000001 Cu
atom 2.3457350899999998 4.2020835200000004 7.7067332899999998 Cu
atom 2.4004232700000001 6.7084234100000000 7.6312525600000001 Cu
atom 0.2253965500000000 0.1557998900000000 8.3723960999999996 Cu
atom 0.0316006600000000 2.7453556799999999 8.1089025100000001 Cu
atom 0.1901953700000000 5.1578402400000005 8.3354949900000008 Cu
atom 4.4941453399999993 1.4257857100000000 9.0007482599999999 Cu
atom 4.3314204599999995 3.9742940000000000 9.1343772199999993 Cu
atom 4.4316961599999996 6.4098534699999998 8.9093118499999999 Cu
atom 2.4248346500000002 0.4061689800000000 9.8563325699999993 Cu
atom 2.1121333299999998 2.7412855000000000 9.7083211400000007 Cu
atom 2.0823733999999998 5.5052291899999997 9.8442306899999998 Cu
atom 6.3093388299999997 2.1502263500000001 10.4861830499999993 Cu
atom 6.1568245499999996 4.7815270200000004 10.3985171300000001 Cu
atom 6.0503322599999994 7.2798431499999996 10.6309907399999997 Cu
atom 3.7757688699999998 7.2193263999999999 11.5714196900000008 Cu
atom 3.6593439099999996 1.8192174800000001 11.5182819599999995 Cu
atom 3.5319004499999997 4.5254717099999997 11.6223667499999994 Cu
atom 1.6273061799999999 0.6525534200000001 11.9267407100000007 Cu
atom 1.4561329800000000 3.4247209600000001 12.0064889299999997 Cu
atom 1.7663986899999999 5.8532965299999997 12.1477891299999996 Cu
atom 5.3413224999999995 0.5323050200000000 12.7472318199999997 Cu
atom 5.3720057599999995 2.9795186700000000 12.6219503900000003 Cu
atom 5.5023254399999999 5.6267588300000000 12.5199928299999996 Cu