#=======================================================
# FHI-aims file: cu100_3_66_ase.in
# Created using the Atomic Simulation Environment (ASE)
# Wed Feb 28 21:30:31 2024
#=======================================================
lattice_vector 7.7640324574282928 0.0000000000000000 0.0000000000000000 
lattice_vector 0.0000000000000000 7.7640324574282928 0.0000000000000000 
lattice_vector 0.0000000000000000 0.0000000000000000 49.1499999999999986 
atom 1.2940054095713820 1.2940054095713820 0.0000000000000000 Cu
    constrain_relaxation .true.
atom 3.8820162287141460 1.2940054095713820 0.0000000000000000 Cu
    constrain_relaxation .true.
atom 6.4700270478569095 1.2940054095713820 0.0000000000000000 Cu
    constrain_relaxation .true.
atom 1.2940054095713820 3.8820162287141460 0.0000000000000000 Cu
    constrain_relaxation .true.
atom 3.8820162287141460 3.8820162287141460 0.0000000000000000 Cu
    constrain_relaxation .true.
atom 6.4700270478569095 3.8820162287141460 0.0000000000000000 Cu
    constrain_relaxation .true.
atom 1.2940054095713820 6.4700270478569095 0.0000000000000000 Cu
    constrain_relaxation .true.
atom 3.8820162287141460 6.4700270478569095 0.0000000000000000 Cu
    constrain_relaxation .true.
atom 6.4700270478569095 6.4700270478569095 0.0000000000000000 Cu
    constrain_relaxation .true.
atom 0.0000000000000000 0.0000000000000000 1.8299999999999983 Cu
    constrain_relaxation .true.
atom 2.5880108191427640 0.0000000000000000 1.8299999999999983 Cu
    constrain_relaxation .true.
atom 5.1760216382855280 0.0000000000000000 1.8299999999999983 Cu
    constrain_relaxation .true.
atom 0.0000000000000000 2.5880108191427640 1.8299999999999983 Cu
    constrain_relaxation .true.
atom 2.5880108191427640 2.5880108191427640 1.8299999999999983 Cu
    constrain_relaxation .true.
atom 5.1760216382855280 2.5880108191427640 1.8299999999999983 Cu
    constrain_relaxation .true.
atom 0.0000000000000000 5.1760216382855280 1.8299999999999983 Cu
    constrain_relaxation .true.
atom 2.5880108191427640 5.1760216382855280 1.8299999999999983 Cu
    constrain_relaxation .true.
atom 5.1760216382855280 5.1760216382855280 1.8299999999999983 Cu
    constrain_relaxation .true.
atom 1.2940054095713820 1.2940054095713820 3.6600000000000001 Cu
atom 3.8820162287141460 1.2940054095713820 3.6600000000000001 Cu
atom 6.4700270478569095 1.2940054095713820 3.6600000000000001 Cu
atom 1.2940054095713820 3.8820162287141460 3.6600000000000001 Cu
atom 3.8820162287141460 3.8820162287141460 3.6600000000000001 Cu
atom 6.4700270478569095 3.8820162287141460 3.6600000000000001 Cu
atom 1.2940054095713820 6.4700270478569095 3.6600000000000001 Cu
atom 3.8820162287141460 6.4700270478569095 3.6600000000000001 Cu
atom 6.4700270478569095 6.4700270478569095 3.6600000000000001 Cu
atom 0.0000000000000000 0.0000000000000000 5.4900000000000020 Cu
atom 2.5880108191427640 0.0000000000000000 5.4900000000000020 Cu
atom 5.1760216382855280 0.0000000000000000 5.4900000000000020 Cu
atom 0.0000000000000000 2.5880108191427640 5.4900000000000020 Cu
atom 2.5880108191427640 2.5880108191427640 5.4900000000000020 Cu
atom 5.1760216382855280 2.5880108191427640 5.4900000000000020 Cu
atom 0.0000000000000000 5.1760216382855280 5.4900000000000020 Cu
atom 2.5880108191427640 5.1760216382855280 5.4900000000000020 Cu
atom 5.1760216382855280 5.1760216382855280 5.4900000000000020 Cu
atom 1.2940054095713820 1.2940054095713820 7.3200000000000003 Cu
atom 3.8820162287141460 1.2940054095713820 7.3200000000000003 Cu
atom 6.4700270478569095 1.2940054095713820 7.3200000000000003 Cu
atom 1.2940054095713820 3.8820162287141460 7.3200000000000003 Cu
atom 3.8820162287141460 3.8820162287141460 7.3200000000000003 Cu
atom 6.4700270478569095 3.8820162287141460 7.3200000000000003 Cu
atom 1.2940054095713820 6.4700270478569095 7.3200000000000003 Cu
atom 3.8820162287141460 6.4700270478569095 7.3200000000000003 Cu
atom 6.4700270478569095 6.4700270478569095 7.3200000000000003 Cu
atom 0.0000000000000000 0.0000000000000000 9.1499999999999986 Cu
atom 2.5880108191427640 0.0000000000000000 9.1499999999999986 Cu
atom 5.1760216382855280 0.0000000000000000 9.1499999999999986 Cu
atom 0.0000000000000000 2.5880108191427640 9.1499999999999986 Cu
atom 2.5880108191427640 2.5880108191427640 9.1499999999999986 Cu
atom 5.1760216382855280 2.5880108191427640 9.1499999999999986 Cu
atom 0.0000000000000000 5.1760216382855280 9.1499999999999986 Cu
atom 2.5880108191427640 5.1760216382855280 9.1499999999999986 Cu
atom 5.1760216382855280 5.1760216382855280 9.1499999999999986 Cu
