#=======================================================
# FHI-aims file: cu100_3_71_ase.in
# Created using the Atomic Simulation Environment (ASE)
# Wed Feb 28 21:30:38 2024
#=======================================================
lattice_vector 7.8700984746062739 0.0000000000000000 0.0000000000000000 
lattice_vector 0.0000000000000000 7.8700984746062739 0.0000000000000000 
lattice_vector 0.0000000000000000 0.0000000000000000 49.2749999999999986 
atom 1.3116830791010456 1.3116830791010456 0.0000000000000000 Cu
    constrain_relaxation .true.
atom 3.9350492373031369 1.3116830791010456 0.0000000000000000 Cu
    constrain_relaxation .true.
atom 6.5584153955052287 1.3116830791010456 0.0000000000000000 Cu
    constrain_relaxation .true.
atom 1.3116830791010456 3.9350492373031369 0.0000000000000000 Cu
    constrain_relaxation .true.
atom 3.9350492373031369 3.9350492373031369 0.0000000000000000 Cu
    constrain_relaxation .true.
atom 6.5584153955052287 3.9350492373031369 0.0000000000000000 Cu
    constrain_relaxation .true.
atom 1.3116830791010456 6.5584153955052287 0.0000000000000000 Cu
    constrain_relaxation .true.
atom 3.9350492373031369 6.5584153955052287 0.0000000000000000 Cu
    constrain_relaxation .true.
atom 6.5584153955052287 6.5584153955052287 0.0000000000000000 Cu
    constrain_relaxation .true.
atom 0.0000000000000000 0.0000000000000000 1.8550000000000004 Cu
    constrain_relaxation .true.
atom 2.6233661582020913 0.0000000000000000 1.8550000000000004 Cu
    constrain_relaxation .true.
atom 5.2467323164041826 0.0000000000000000 1.8550000000000004 Cu
    constrain_relaxation .true.
atom 0.0000000000000000 2.6233661582020913 1.8550000000000004 Cu
    constrain_relaxation .true.
atom 2.6233661582020913 2.6233661582020913 1.8550000000000004 Cu
    constrain_relaxation .true.
atom 5.2467323164041826 2.6233661582020913 1.8550000000000004 Cu
    constrain_relaxation .true.
atom 0.0000000000000000 5.2467323164041826 1.8550000000000004 Cu
    constrain_relaxation .true.
atom 2.6233661582020913 5.2467323164041826 1.8550000000000004 Cu
    constrain_relaxation .true.
atom 5.2467323164041826 5.2467323164041826 1.8550000000000004 Cu
    constrain_relaxation .true.
atom 1.3116830791010456 1.3116830791010456 3.7100000000000009 Cu
atom 3.9350492373031369 1.3116830791010456 3.7100000000000009 Cu
atom 6.5584153955052287 1.3116830791010456 3.7100000000000009 Cu
atom 1.3116830791010456 3.9350492373031369 3.7100000000000009 Cu
atom 3.9350492373031369 3.9350492373031369 3.7100000000000009 Cu
atom 6.5584153955052287 3.9350492373031369 3.7100000000000009 Cu
atom 1.3116830791010456 6.5584153955052287 3.7100000000000009 Cu
atom 3.9350492373031369 6.5584153955052287 3.7100000000000009 Cu
atom 6.5584153955052287 6.5584153955052287 3.7100000000000009 Cu
atom 0.0000000000000000 0.0000000000000000 5.5649999999999977 Cu
atom 2.6233661582020913 0.0000000000000000 5.5649999999999977 Cu
atom 5.2467323164041826 0.0000000000000000 5.5649999999999977 Cu
atom 0.0000000000000000 2.6233661582020913 5.5649999999999977 Cu
atom 2.6233661582020913 2.6233661582020913 5.5649999999999977 Cu
atom 5.2467323164041826 2.6233661582020913 5.5649999999999977 Cu
atom 0.0000000000000000 5.2467323164041826 5.5649999999999977 Cu
atom 2.6233661582020913 5.2467323164041826 5.5649999999999977 Cu
atom 5.2467323164041826 5.2467323164041826 5.5649999999999977 Cu
atom 1.3116830791010456 1.3116830791010456 7.4199999999999982 Cu
atom 3.9350492373031369 1.3116830791010456 7.4199999999999982 Cu
atom 6.5584153955052287 1.3116830791010456 7.4199999999999982 Cu
atom 1.3116830791010456 3.9350492373031369 7.4199999999999982 Cu
atom 3.9350492373031369 3.9350492373031369 7.4199999999999982 Cu
atom 6.5584153955052287 3.9350492373031369 7.4199999999999982 Cu
atom 1.3116830791010456 6.5584153955052287 7.4199999999999982 Cu
atom 3.9350492373031369 6.5584153955052287 7.4199999999999982 Cu
atom 6.5584153955052287 6.5584153955052287 7.4199999999999982 Cu
atom 0.0000000000000000 0.0000000000000000 9.2749999999999986 Cu
atom 2.6233661582020913 0.0000000000000000 9.2749999999999986 Cu
atom 5.2467323164041826 0.0000000000000000 9.2749999999999986 Cu
atom 0.0000000000000000 2.6233661582020913 9.2749999999999986 Cu
atom 2.6233661582020913 2.6233661582020913 9.2749999999999986 Cu
atom 5.2467323164041826 2.6233661582020913 9.2749999999999986 Cu
atom 0.0000000000000000 5.2467323164041826 9.2749999999999986 Cu
atom 2.6233661582020913 5.2467323164041826 9.2749999999999986 Cu
atom 5.2467323164041826 5.2467323164041826 9.2749999999999986 Cu
