#=======================================================
# FHI-aims file: cu100.in
# Created using the Atomic Simulation Environment (ASE)
# Mon Jan 24 15:13:30 2022
#=======================================================
lattice_vector 7.7487589500000000 0.0000000000000000 0.0000000000000000 
lattice_vector 0.0000000000000000 7.7487589500000000 0.0000000000000000 
lattice_vector 0.0000000000000000 0.0000000000000000 49.1319999999999979 
atom 1.2914598300000000 1.2914598300000000 0.0000000000000000 Cu
    constrain_relaxation .true.
atom 3.8743794800000000 1.2914598300000000 0.0000000000000000 Cu
    constrain_relaxation .true.
atom 6.4572991300000000 1.2914598300000000 0.0000000000000000 Cu
    constrain_relaxation .true.
atom 1.2914598300000000 3.8743794800000000 0.0000000000000000 Cu
    constrain_relaxation .true.
atom 3.8743794800000000 3.8743794800000000 0.0000000000000000 Cu
    constrain_relaxation .true.
atom 6.4572991300000000 3.8743794800000000 0.0000000000000000 Cu
    constrain_relaxation .true.
atom 1.2914598300000000 6.4572991300000000 0.0000000000000000 Cu
    constrain_relaxation .true.
atom 3.8743794800000000 6.4572991300000000 0.0000000000000000 Cu
    constrain_relaxation .true.
atom 6.4572991300000000 6.4572991300000000 0.0000000000000000 Cu
    constrain_relaxation .true.
atom 0.0000000000000000 0.0000000000000000 1.8264000000000000 Cu
    constrain_relaxation .true.
atom 2.5829196500000000 0.0000000000000000 1.8264000000000000 Cu
    constrain_relaxation .true.
atom 5.1658393000000000 0.0000000000000000 1.8264000000000000 Cu
    constrain_relaxation .true.
atom 0.0000000000000000 2.5829196500000000 1.8264000000000000 Cu
    constrain_relaxation .true.
atom 2.5829196500000000 2.5829196500000000 1.8264000000000000 Cu
    constrain_relaxation .true.
atom 5.1658393000000000 2.5829196500000000 1.8264000000000000 Cu
    constrain_relaxation .true.
atom 0.0000000000000000 5.1658393000000000 1.8264000000000000 Cu
    constrain_relaxation .true.
atom 2.5829196500000000 5.1658393000000000 1.8264000000000000 Cu
    constrain_relaxation .true.
atom 5.1658393000000000 5.1658393000000000 1.8264000000000000 Cu
    constrain_relaxation .true.
atom 1.0980079800000000 1.1909353199999999 3.6020613600000000 Cu
atom 3.5127051499999999 1.1478491399999999 3.7083768500000001 Cu
atom 6.2130030000000005 1.1910146399999999 3.5271649799999998 Cu
atom 1.1518356999999999 3.9527623100000002 3.5897180299999998 Cu
atom 3.7952686299999998 3.8263088600000001 3.6481624699999999 Cu
atom 6.3975165000000001 3.8092125499999998 3.7448862100000002 Cu
atom 1.2207996000000001 6.4619229200000001 3.8264355399999999 Cu
atom 3.8401698400000002 6.5486992800000001 3.7148243100000000 Cu
atom 6.6306544899999995 6.4460373799999999 3.7444339400000000 Cu
atom 7.5925686800000003 0.1892627200000000 5.7212993399999998 Cu
atom 2.4783833199999998 0.1563916500000000 5.6349195900000000 Cu
atom 5.2214678899999996 7.6698474200000000 5.4719689699999998 Cu
atom 7.6650691300000000 2.5797476800000001 5.7359224700000002 Cu
atom 2.4798443099999998 2.5052131499999999 5.3784052600000001 Cu
atom 5.1849268400000001 2.4773107400000001 5.4196522600000003 Cu
atom 0.0110524700000000 5.2747990800000002 5.5334692399999996 Cu
atom 2.6109358500000002 5.0534951399999999 5.4897205099999997 Cu
atom 5.1132160199999994 5.1251906500000004 5.5697046200000004 Cu
atom 1.2930233499999999 1.4425819300000000 7.4544772300000002 Cu
atom 3.8301528399999998 1.4251571800000000 7.3055805100000004 Cu
atom 1.2281502000000000 3.8240564199999998 7.3646756699999996 Cu
atom 3.8870046899999999 3.9141278000000002 7.3814029300000001 Cu
atom 6.3601087600000001 1.3489300300000000 7.3826139099999999 Cu
atom 6.5261770600000002 3.8330958000000002 7.5198785299999997 Cu
atom 1.3435560200000001 6.5864358400000000 7.5293626199999997 Cu
atom 3.8045471100000001 6.6956341699999999 7.4925282199999996 Cu
atom 6.4644112499999995 6.5048982500000001 7.4860716399999996 Cu
atom 5.3200968500000005 0.3364829800000000 9.3472959899999992 Cu
atom 5.1163231800000002 2.7889687900000002 9.1760774900000008 Cu
atom 0.1884560700000000 4.9437318900000005 9.6887827899999994 Cu
atom 2.7845501200000000 5.2217674699999996 9.2395543399999998 Cu
atom 5.1855612799999999 5.2717669599999999 8.9404502699999995 Cu
atom 0.0920727100000000 0.0186315900000000 9.0243361699999998 Cu
atom 2.5392927099999998 0.2069486300000000 9.5036560399999992 Cu
atom 0.0766795300000000 2.4835194000000000 9.1417330600000000 Cu
atom 2.6363727400000001 2.6709209500000002 9.4162335800000001 Cu
