#=======================================================
# FHI-aims file: cu100_3_68_ase.in
# Created using the Atomic Simulation Environment (ASE)
# Wed Feb 28 21:30:27 2024
#=======================================================
lattice_vector 7.8064588642994845 0.0000000000000000 0.0000000000000000 
lattice_vector 0.0000000000000000 7.8064588642994845 0.0000000000000000 
lattice_vector 0.0000000000000000 0.0000000000000000 49.2000000000000028 
atom 1.3010764773832473 1.3010764773832473 0.0000000000000000 Cu
    constrain_relaxation .true.
atom 3.9032294321497418 1.3010764773832473 0.0000000000000000 Cu
    constrain_relaxation .true.
atom 6.5053823869162368 1.3010764773832473 0.0000000000000000 Cu
    constrain_relaxation .true.
atom 1.3010764773832473 3.9032294321497418 0.0000000000000000 Cu
    constrain_relaxation .true.
atom 3.9032294321497418 3.9032294321497418 0.0000000000000000 Cu
    constrain_relaxation .true.
atom 6.5053823869162368 3.9032294321497418 0.0000000000000000 Cu
    constrain_relaxation .true.
atom 1.3010764773832473 6.5053823869162368 0.0000000000000000 Cu
    constrain_relaxation .true.
atom 3.9032294321497418 6.5053823869162368 0.0000000000000000 Cu
    constrain_relaxation .true.
atom 6.5053823869162368 6.5053823869162368 0.0000000000000000 Cu
    constrain_relaxation .true.
atom 0.0000000000000000 0.0000000000000000 1.8399999999999999 Cu
    constrain_relaxation .true.
atom 2.6021529547664946 0.0000000000000000 1.8399999999999999 Cu
    constrain_relaxation .true.
atom 5.2043059095329891 0.0000000000000000 1.8399999999999999 Cu
    constrain_relaxation .true.
atom 0.0000000000000000 2.6021529547664946 1.8399999999999999 Cu
    constrain_relaxation .true.
atom 2.6021529547664946 2.6021529547664946 1.8399999999999999 Cu
    constrain_relaxation .true.
atom 5.2043059095329891 2.6021529547664946 1.8399999999999999 Cu
    constrain_relaxation .true.
atom 0.0000000000000000 5.2043059095329891 1.8399999999999999 Cu
    constrain_relaxation .true.
atom 2.6021529547664946 5.2043059095329891 1.8399999999999999 Cu
    constrain_relaxation .true.
atom 5.2043059095329891 5.2043059095329891 1.8399999999999999 Cu
    constrain_relaxation .true.
atom 1.3010764773832473 1.3010764773832473 3.6799999999999997 Cu
atom 3.9032294321497418 1.3010764773832473 3.6799999999999997 Cu
atom 6.5053823869162368 1.3010764773832473 3.6799999999999997 Cu
atom 1.3010764773832473 3.9032294321497418 3.6799999999999997 Cu
atom 3.9032294321497418 3.9032294321497418 3.6799999999999997 Cu
atom 6.5053823869162368 3.9032294321497418 3.6799999999999997 Cu
atom 1.3010764773832473 6.5053823869162368 3.6799999999999997 Cu
atom 3.9032294321497418 6.5053823869162368 3.6799999999999997 Cu
atom 6.5053823869162368 6.5053823869162368 3.6799999999999997 Cu
atom 0.0000000000000000 0.0000000000000000 5.5199999999999996 Cu
atom 2.6021529547664946 0.0000000000000000 5.5199999999999996 Cu
atom 5.2043059095329891 0.0000000000000000 5.5199999999999996 Cu
atom 0.0000000000000000 2.6021529547664946 5.5199999999999996 Cu
atom 2.6021529547664946 2.6021529547664946 5.5199999999999996 Cu
atom 5.2043059095329891 2.6021529547664946 5.5199999999999996 Cu
atom 0.0000000000000000 5.2043059095329891 5.5199999999999996 Cu
atom 2.6021529547664946 5.2043059095329891 5.5199999999999996 Cu
atom 5.2043059095329891 5.2043059095329891 5.5199999999999996 Cu
atom 1.3010764773832473 1.3010764773832473 7.3599999999999994 Cu
atom 3.9032294321497418 1.3010764773832473 7.3599999999999994 Cu
atom 6.5053823869162368 1.3010764773832473 7.3599999999999994 Cu
atom 1.3010764773832473 3.9032294321497418 7.3599999999999994 Cu
atom 3.9032294321497418 3.9032294321497418 7.3599999999999994 Cu
atom 6.5053823869162368 3.9032294321497418 7.3599999999999994 Cu
atom 1.3010764773832473 6.5053823869162368 7.3599999999999994 Cu
atom 3.9032294321497418 6.5053823869162368 7.3599999999999994 Cu
atom 6.5053823869162368 6.5053823869162368 7.3599999999999994 Cu
atom 0.0000000000000000 0.0000000000000000 9.2000000000000028 Cu
atom 2.6021529547664946 0.0000000000000000 9.2000000000000028 Cu
atom 5.2043059095329891 0.0000000000000000 9.2000000000000028 Cu
atom 0.0000000000000000 2.6021529547664946 9.2000000000000028 Cu
atom 2.6021529547664946 2.6021529547664946 9.2000000000000028 Cu
atom 5.2043059095329891 2.6021529547664946 9.2000000000000028 Cu
atom 0.0000000000000000 5.2043059095329891 9.2000000000000028 Cu
atom 2.6021529547664946 5.2043059095329891 9.2000000000000028 Cu
atom 5.2043059095329891 5.2043059095329891 9.2000000000000028 Cu
