lattice_vector     10.33167860      0.00000000      0.00000000
lattice_vector      0.00000000     10.33167860      0.00000000
lattice_vector      0.00000000      0.00000000     99.13200000
atom       1.29145983      1.29145983      0.00000000 Cu
  constrain_relaxation .true.
atom       3.87437948      1.29145983      0.00000000 Cu
  constrain_relaxation .true.
atom       6.45729913      1.29145983      0.00000000 Cu
  constrain_relaxation .true.
atom       9.04021878      1.29145983      0.00000000 Cu
  constrain_relaxation .true.
atom       1.29145983      3.87437948      0.00000000 Cu
  constrain_relaxation .true.
atom       3.87437948      3.87437948      0.00000000 Cu
  constrain_relaxation .true.
atom       6.45729913      3.87437948      0.00000000 Cu
  constrain_relaxation .true.
atom       9.04021878      3.87437948      0.00000000 Cu
  constrain_relaxation .true.
atom       1.29145983      6.45729913      0.00000000 Cu
  constrain_relaxation .true.
atom       3.87437948      6.45729913      0.00000000 Cu
  constrain_relaxation .true.
atom       6.45729913      6.45729913      0.00000000 Cu
  constrain_relaxation .true.
atom       9.04021878      6.45729913      0.00000000 Cu
  constrain_relaxation .true.
atom       1.29145983      9.04021878      0.00000000 Cu
  constrain_relaxation .true.
atom       3.87437948      9.04021878      0.00000000 Cu
  constrain_relaxation .true.
atom       6.45729913      9.04021878      0.00000000 Cu
  constrain_relaxation .true.
atom       9.04021878      9.04021878      0.00000000 Cu
  constrain_relaxation .true.
atom       0.00000000      0.00000000      1.82640000 Cu
  constrain_relaxation .true.
atom       2.58291965      0.00000000      1.82640000 Cu
  constrain_relaxation .true.
atom       5.16583930      0.00000000      1.82640000 Cu
  constrain_relaxation .true.
atom       7.74875895      0.00000000      1.82640000 Cu
  constrain_relaxation .true.
atom       0.00000000      2.58291965      1.82640000 Cu
  constrain_relaxation .true.
atom       2.58291965      2.58291965      1.82640000 Cu
  constrain_relaxation .true.
atom       5.16583930      2.58291965      1.82640000 Cu
  constrain_relaxation .true.
atom       7.74875895      2.58291965      1.82640000 Cu
  constrain_relaxation .true.
atom       0.00000000      5.16583930      1.82640000 Cu
  constrain_relaxation .true.
atom       2.58291965      5.16583930      1.82640000 Cu
  constrain_relaxation .true.
atom       5.16583930      5.16583930      1.82640000 Cu
  constrain_relaxation .true.
atom       7.74875895      5.16583930      1.82640000 Cu
  constrain_relaxation .true.
atom       0.00000000      7.74875895      1.82640000 Cu
  constrain_relaxation .true.
atom       2.58291965      7.74875895      1.82640000 Cu
  constrain_relaxation .true.
atom       5.16583930      7.74875895      1.82640000 Cu
  constrain_relaxation .true.
atom       7.74875895      7.74875895      1.82640000 Cu
  constrain_relaxation .true.
atom       1.29145977      1.29145988      3.65700799 Cu
atom       3.87437935      1.29146000      3.65700795 Cu
atom       6.45729917      1.29146001      3.65700793 Cu
atom       9.04021881      1.29145992      3.65700799 Cu
atom       1.29145988      3.87437944      3.65700789 Cu
atom       3.87437951      3.87437957      3.65700813 Cu
atom       6.45729908      3.87437952      3.65700811 Cu
atom       9.04021872      3.87437948      3.65700794 Cu
atom       1.29145988      6.45729909      3.65700789 Cu
atom       3.87437948      6.45729894      3.65700807 Cu
atom       6.45729908      6.45729897      3.65700805 Cu
atom       9.04021876      6.45729911      3.65700781 Cu
atom       1.29145979      9.04021873      3.65700798 Cu
atom       3.87437936      9.04021863      3.65700791 Cu
atom       6.45729920      9.04021868      3.65700790 Cu
atom       9.04021885      9.04021875      3.65700795 Cu
atom       0.00000002     -0.00000007      5.48961237 Cu
atom       2.58291953     -0.00000004      5.48961219 Cu
atom       5.16583926      0.00000007      5.48961180 Cu
atom       7.74875906      0.00000009      5.48961212 Cu
atom      -0.00000006      2.58291977      5.48961235 Cu
atom       2.58291955      2.58291971      5.48961239 Cu
atom       5.16583930      2.58291969      5.48961236 Cu
atom       7.74875900      2.58291975      5.48961244 Cu
atom      -0.00000001      5.16583940      5.48961218 Cu
atom       2.58291944      5.16583929      5.48961244 Cu
atom       5.16583927      5.16583916      5.48961257 Cu
atom       7.74875913      5.16583926      5.48961240 Cu
atom       0.00000007      7.74875885      5.48961233 Cu
atom       2.58291945      7.74875887      5.48961233 Cu
atom       5.16583926      7.74875886      5.48961208 Cu
atom       7.74875918      7.74875888      5.48961217 Cu
atom       1.29145979      1.29145985      7.32418228 Cu
atom       3.87437959      1.29145972      7.32418205 Cu
atom       6.45729911      1.29145975      7.32418215 Cu
atom       9.04021878      1.29145989      7.32418235 Cu
atom       1.29145961      3.87437966      7.32418240 Cu
atom       3.87437936      3.87437943      7.32418226 Cu
atom       6.45729927      3.87437940      7.32418247 Cu
atom       9.04021891      3.87437963      7.32418252 Cu
atom       1.29145966      6.45729908      7.32418259 Cu
atom       3.87437935      6.45729919      7.32418215 Cu
atom       6.45729930      6.45729920      7.32418209 Cu
atom       9.04021897      6.45729900      7.32418246 Cu
atom       1.29145982      9.04021869      7.32418244 Cu
atom       3.87437952      9.04021887      7.32418192 Cu
atom       6.45729907      9.04021891      7.32418175 Cu
atom       9.04021881      9.04021871      7.32418229 Cu
atom      -0.00000002      0.00000012      9.09532525 Cu
atom       2.58291976      0.00000003      9.09532492 Cu
atom       5.16583925     -0.00000008      9.09532491 Cu
atom       7.74875883     -0.00000018      9.09532494 Cu
atom       0.00000008      2.58291964      9.09532534 Cu
atom       2.58291961      2.58291966      9.09532477 Cu
atom       5.16583915      2.58291961      9.09532476 Cu
atom       7.74875898      2.58291967      9.09532505 Cu
atom      -0.00000003      5.16583919      9.09532569 Cu
atom       2.58291977      5.16583924      9.09532507 Cu
atom       5.16583932      5.16583941      9.09532496 Cu
atom       7.74875890      5.16583945      9.09532515 Cu
atom      -0.00000011      7.74875895      9.09532542 Cu
atom       2.58291983      7.74875897      9.09532490 Cu
atom       5.16583945      7.74875901      9.09532444 Cu
atom       7.74875881      7.74875893      9.09532464 Cu