#=======================================================
# FHI-aims file: cu110_2.in
# Created using the Atomic Simulation Environment (ASE)
# Wed Jan 26 11:27:11 2022
#=======================================================
lattice_vector 10.9583999999999993 0.0000000000000000 0.0000000000000000 
lattice_vector 0.0000000000000000 7.7487589500000000 0.0000000000000000 
lattice_vector 0.0000000000000000 0.0000000000000000 46.4572991300000027 
atom 1.8264000000000000 1.2914598300000000 0.0000000000000000 Cu
    constrain_relaxation .true.
atom 5.4791999999999996 1.2914598300000000 0.0000000000000000 Cu
    constrain_relaxation .true.
atom 9.1319999999999997 1.2914598300000000 0.0000000000000000 Cu
    constrain_relaxation .true.
atom 1.8264000000000000 3.8743794800000000 0.0000000000000000 Cu
    constrain_relaxation .true.
atom 5.4791999999999996 3.8743794800000000 0.0000000000000000 Cu
    constrain_relaxation .true.
atom 9.1319999999999997 3.8743794800000000 0.0000000000000000 Cu
    constrain_relaxation .true.
atom 1.8264000000000000 6.4572991300000000 0.0000000000000000 Cu
    constrain_relaxation .true.
atom 5.4791999999999996 6.4572991300000000 0.0000000000000000 Cu
    constrain_relaxation .true.
atom 9.1319999999999997 6.4572991300000000 0.0000000000000000 Cu
    constrain_relaxation .true.
atom 0.0000000000000000 0.0000000000000000 1.2914598300000000 Cu
    constrain_relaxation .true.
atom 3.6528000000000000 0.0000000000000000 1.2914598300000000 Cu
    constrain_relaxation .true.
atom 7.3055999999999992 0.0000000000000000 1.2914598300000000 Cu
    constrain_relaxation .true.
atom 0.0000000000000000 2.5829196500000000 1.2914598300000000 Cu
    constrain_relaxation .true.
atom 3.6528000000000000 2.5829196500000000 1.2914598300000000 Cu
    constrain_relaxation .true.
atom 7.3055999999999992 2.5829196500000000 1.2914598300000000 Cu
    constrain_relaxation .true.
atom 0.0000000000000000 5.1658393000000000 1.2914598300000000 Cu
    constrain_relaxation .true.
atom 3.6528000000000000 5.1658393000000000 1.2914598300000000 Cu
    constrain_relaxation .true.
atom 7.3055999999999992 5.1658393000000000 1.2914598300000000 Cu
    constrain_relaxation .true.
atom 1.7382887700000000 1.2599188400000001 2.6156546700000001 Cu
atom 5.5516063499999992 1.4071952299999999 2.6282214900000000 Cu
atom 9.1298895699999996 1.3359779800000000 2.5654466100000000 Cu
atom 1.7727801100000000 3.8775125600000000 2.4741640500000002 Cu
atom 5.5392802999999988 3.9484636300000000 2.5757056299999999 Cu
atom 9.0435929000000002 3.9203173400000000 2.6802194400000001 Cu
atom 1.7531634800000000 6.4504063699999996 2.5794150500000002 Cu
atom 5.4114376699999998 6.6605475300000005 2.6470810100000000 Cu
atom 9.1243021099999986 6.4899030900000003 2.5001767699999999 Cu
atom 10.7304404699999996 7.6988332599999998 3.8773908499999998 Cu
atom 3.6049810000000000 0.0388196700000000 3.9408525200000000 Cu
atom 10.8691835299999990 2.6072907800000000 3.7825532000000002 Cu
atom 3.6276442599999998 2.4501574599999998 3.9518591000000001 Cu
atom 7.3274796599999998 7.6745953099999999 3.8026768099999999 Cu
atom 7.3467925399999991 2.5060404300000001 3.9836069400000000 Cu
atom 10.8947016099999985 5.1932311100000002 3.8232270700000002 Cu
atom 3.6693720800000000 5.1019592300000003 3.9708397000000000 Cu
atom 7.3267305599999997 5.1090659800000005 3.9519199800000000 Cu
atom 1.8014617200000000 1.3608960299999999 5.3041061400000000 Cu
atom 5.5049062499999994 1.3535853200000001 5.0931881399999996 Cu
atom 1.7605607000000001 4.0837007999999999 5.1289922299999997 Cu
atom 5.4704552900000003 3.8678474000000000 5.3813076700000000 Cu
atom 8.9667396999999998 1.2977994399999999 5.2066786699999996 Cu
atom 9.0758696199999989 3.6804527700000000 5.2054261100000003 Cu
atom 1.5982520800000000 6.4781408699999998 5.3698777000000000 Cu
atom 5.4159409700000003 6.4325662900000005 5.1728970399999996 Cu
atom 9.1813140299999993 6.3432986499999995 5.1519456600000000 Cu
atom 10.8090433099999998 0.0842996400000000 6.4083003500000002 Cu
atom 3.6416599600000001 0.0034271300000000 6.5224696900000003 Cu
atom 0.0992671800000000 2.6317560800000002 6.3908176499999998 Cu
atom 3.5145799599999998 2.6328002100000001 6.4213377600000001 Cu
atom 7.2799945199999989 7.5631864899999997 6.3809200099999996 Cu
atom 7.2488140499999991 2.4506005900000001 6.3954570799999999 Cu
atom 10.9025464299999992 5.0313103500000000 6.4399387099999998 Cu
atom 3.4906628600000000 5.2903090299999995 6.3441832700000003 Cu
atom 7.2568964099999995 5.1192276500000000 6.5152359000000004 Cu
