#=======================================================
# FHI-aims file: cu110_3_66_ase.in
# Created using the Atomic Simulation Environment (ASE)
# Wed Feb 28 21:30:31 2024
#=======================================================
lattice_vector 10.9800000000000004 0.0000000000000000 0.0000000000000000 
lattice_vector 0.0000000000000000 7.7640324574282928 0.0000000000000000 
lattice_vector 0.0000000000000000 0.0000000000000000 46.4700270478569095 
atom 1.8300000000000001 1.2940054095713820 0.0000000000000000 Cu
    constrain_relaxation .true.
atom 5.4900000000000002 1.2940054095713820 0.0000000000000000 Cu
    constrain_relaxation .true.
atom 9.1500000000000004 1.2940054095713820 0.0000000000000000 Cu
    constrain_relaxation .true.
atom 1.8300000000000001 3.8820162287141460 0.0000000000000000 Cu
    constrain_relaxation .true.
atom 5.4900000000000002 3.8820162287141460 0.0000000000000000 Cu
    constrain_relaxation .true.
atom 9.1500000000000004 3.8820162287141460 0.0000000000000000 Cu
    constrain_relaxation .true.
atom 1.8300000000000001 6.4700270478569095 0.0000000000000000 Cu
    constrain_relaxation .true.
atom 5.4900000000000002 6.4700270478569095 0.0000000000000000 Cu
    constrain_relaxation .true.
atom 9.1500000000000004 6.4700270478569095 0.0000000000000000 Cu
    constrain_relaxation .true.
atom 0.0000000000000000 0.0000000000000000 1.2940054095713833 Cu
    constrain_relaxation .true.
atom 3.6600000000000001 0.0000000000000000 1.2940054095713833 Cu
    constrain_relaxation .true.
atom 7.3200000000000003 0.0000000000000000 1.2940054095713833 Cu
    constrain_relaxation .true.
atom 0.0000000000000000 2.5880108191427640 1.2940054095713833 Cu
    constrain_relaxation .true.
atom 3.6600000000000001 2.5880108191427640 1.2940054095713833 Cu
    constrain_relaxation .true.
atom 7.3200000000000003 2.5880108191427640 1.2940054095713833 Cu
    constrain_relaxation .true.
atom 0.0000000000000000 5.1760216382855280 1.2940054095713833 Cu
    constrain_relaxation .true.
atom 3.6600000000000001 5.1760216382855280 1.2940054095713833 Cu
    constrain_relaxation .true.
atom 7.3200000000000003 5.1760216382855280 1.2940054095713833 Cu
    constrain_relaxation .true.
atom 1.8300000000000001 1.2940054095713820 2.5880108191427631 Cu
atom 5.4900000000000002 1.2940054095713820 2.5880108191427631 Cu
atom 9.1500000000000004 1.2940054095713820 2.5880108191427631 Cu
atom 1.8300000000000001 3.8820162287141460 2.5880108191427631 Cu
atom 5.4900000000000002 3.8820162287141460 2.5880108191427631 Cu
atom 9.1500000000000004 3.8820162287141460 2.5880108191427631 Cu
atom 1.8300000000000001 6.4700270478569095 2.5880108191427631 Cu
atom 5.4900000000000002 6.4700270478569095 2.5880108191427631 Cu
atom 9.1500000000000004 6.4700270478569095 2.5880108191427631 Cu
atom 0.0000000000000000 0.0000000000000000 3.8820162287141464 Cu
atom 3.6600000000000001 0.0000000000000000 3.8820162287141464 Cu
atom 7.3200000000000003 0.0000000000000000 3.8820162287141464 Cu
atom 0.0000000000000000 2.5880108191427640 3.8820162287141464 Cu
atom 3.6600000000000001 2.5880108191427640 3.8820162287141464 Cu
atom 7.3200000000000003 2.5880108191427640 3.8820162287141464 Cu
atom 0.0000000000000000 5.1760216382855280 3.8820162287141464 Cu
atom 3.6600000000000001 5.1760216382855280 3.8820162287141464 Cu
atom 7.3200000000000003 5.1760216382855280 3.8820162287141464 Cu
atom 1.8300000000000001 1.2940054095713820 5.1760216382855262 Cu
atom 5.4900000000000002 1.2940054095713820 5.1760216382855262 Cu
atom 9.1500000000000004 1.2940054095713820 5.1760216382855262 Cu
atom 1.8300000000000001 3.8820162287141460 5.1760216382855262 Cu
atom 5.4900000000000002 3.8820162287141460 5.1760216382855262 Cu
atom 9.1500000000000004 3.8820162287141460 5.1760216382855262 Cu
atom 1.8300000000000001 6.4700270478569095 5.1760216382855262 Cu
atom 5.4900000000000002 6.4700270478569095 5.1760216382855262 Cu
atom 9.1500000000000004 6.4700270478569095 5.1760216382855262 Cu
atom 0.0000000000000000 0.0000000000000000 6.4700270478569095 Cu
atom 3.6600000000000001 0.0000000000000000 6.4700270478569095 Cu
atom 7.3200000000000003 0.0000000000000000 6.4700270478569095 Cu
atom 0.0000000000000000 2.5880108191427640 6.4700270478569095 Cu
atom 3.6600000000000001 2.5880108191427640 6.4700270478569095 Cu
atom 7.3200000000000003 2.5880108191427640 6.4700270478569095 Cu
atom 0.0000000000000000 5.1760216382855280 6.4700270478569095 Cu
atom 3.6600000000000001 5.1760216382855280 6.4700270478569095 Cu
atom 7.3200000000000003 5.1760216382855280 6.4700270478569095 Cu
