#=======================================================
# FHI-aims file: cu111_3x3_20l.in
# Created using the Atomic Simulation Environment (ASE)
# Wed Jun  7 21:58:06 2023
#=======================================================
lattice_vector 7.7487589509546630 0.0000000000000000 0.0000000000000000 
lattice_vector 3.8743794754773315 6.7106220993287939 0.0000000000000000 
lattice_vector 0.0000000000000000 0.0000000000000000 80.0699562026214409 
atom -0.0000000000000000 1.4912493554063986 0.0000000000000000 Cu
    constrain_relaxation .true.
atom 2.5829196503182210 1.4912493554063986 0.0000000000000000 Cu
    constrain_relaxation .true.
atom 5.1658393006364429 1.4912493554063986 0.0000000000000000 Cu
    constrain_relaxation .true.
atom 1.2914598251591103 3.7281233885159963 0.0000000000000000 Cu
    constrain_relaxation .true.
atom 3.8743794754773315 3.7281233885159963 0.0000000000000000 Cu
    constrain_relaxation .true.
atom 6.4572991257955525 3.7281233885159963 0.0000000000000000 Cu
    constrain_relaxation .true.
atom 2.5829196503182210 5.9649974216255943 0.0000000000000000 Cu
    constrain_relaxation .true.
atom 5.1658393006364420 5.9649974216255943 0.0000000000000000 Cu
    constrain_relaxation .true.
atom 7.7487589509546630 5.9649974216255943 0.0000000000000000 Cu
    constrain_relaxation .true.
atom 0.0000000000000000 0.0000000000000000 2.1089450632958666 Cu
    constrain_relaxation .true.
atom 2.5829196503182210 0.0000000000000000 2.1089450632958666 Cu
    constrain_relaxation .true.
atom 5.1658393006364420 0.0000000000000000 2.1089450632958666 Cu
    constrain_relaxation .true.
atom 1.2914598251591105 2.2368740331095980 2.1089450632958666 Cu
    constrain_relaxation .true.
atom 3.8743794754773315 2.2368740331095980 2.1089450632958666 Cu
    constrain_relaxation .true.
atom 6.4572991257955525 2.2368740331095980 2.1089450632958666 Cu
    constrain_relaxation .true.
atom 2.5829196503182210 4.4737480662191960 2.1089450632958666 Cu
    constrain_relaxation .true.
atom 5.1658393006364420 4.4737480662191960 2.1089450632958666 Cu
    constrain_relaxation .true.
atom 7.7487589509546630 4.4737480662191960 2.1089450632958666 Cu
    constrain_relaxation .true.
atom 1.2914598251591105 0.7456246777031993 4.2178901265917297 Cu
atom 3.8743794754773315 0.7456246777031993 4.2178901265917297 Cu
atom 6.4572991257955525 0.7456246777031993 4.2178901265917297 Cu
atom 2.5829196503182210 2.9824987108127972 4.2178901265917297 Cu
atom 5.1658393006364420 2.9824987108127972 4.2178901265917297 Cu
atom 7.7487589509546630 2.9824987108127972 4.2178901265917297 Cu
atom 3.8743794754773315 5.2193727439223956 4.2178901265917297 Cu
atom 6.4572991257955525 5.2193727439223956 4.2178901265917297 Cu
atom 9.0402187761137736 5.2193727439223956 4.2178901265917297 Cu
atom -0.0000000000000000 1.4912493554063986 6.3268351898875963 Cu
atom 2.5829196503182210 1.4912493554063986 6.3268351898875963 Cu
atom 5.1658393006364429 1.4912493554063986 6.3268351898875963 Cu
atom 1.2914598251591103 3.7281233885159963 6.3268351898875963 Cu
atom 3.8743794754773315 3.7281233885159963 6.3268351898875963 Cu
atom 6.4572991257955525 3.7281233885159963 6.3268351898875963 Cu
atom 2.5829196503182210 5.9649974216255943 6.3268351898875963 Cu
atom 5.1658393006364420 5.9649974216255943 6.3268351898875963 Cu
atom 7.7487589509546630 5.9649974216255943 6.3268351898875963 Cu
atom 0.0000000000000000 0.0000000000000000 8.4357802531834594 Cu
atom 2.5829196503182210 0.0000000000000000 8.4357802531834594 Cu
atom 5.1658393006364420 0.0000000000000000 8.4357802531834594 Cu
atom 1.2914598251591105 2.2368740331095980 8.4357802531834594 Cu
atom 3.8743794754773315 2.2368740331095980 8.4357802531834594 Cu
atom 6.4572991257955525 2.2368740331095980 8.4357802531834594 Cu
atom 2.5829196503182210 4.4737480662191960 8.4357802531834594 Cu
atom 5.1658393006364420 4.4737480662191960 8.4357802531834594 Cu
atom 7.7487589509546630 4.4737480662191960 8.4357802531834594 Cu
atom 1.2914598251591105 0.7456246777031993 10.5447253164793260 Cu
atom 3.8743794754773315 0.7456246777031993 10.5447253164793260 Cu
atom 6.4572991257955525 0.7456246777031993 10.5447253164793260 Cu
atom 2.5829196503182210 2.9824987108127972 10.5447253164793260 Cu
atom 5.1658393006364420 2.9824987108127972 10.5447253164793260 Cu
atom 7.7487589509546630 2.9824987108127972 10.5447253164793260 Cu
atom 3.8743794754773315 5.2193727439223956 10.5447253164793260 Cu
atom 6.4572991257955525 5.2193727439223956 10.5447253164793260 Cu
atom 9.0402187761137736 5.2193727439223956 10.5447253164793260 Cu
atom -0.0000000000000000 1.4912493554063986 12.6536703797751926 Cu
atom 2.5829196503182210 1.4912493554063986 12.6536703797751926 Cu
atom 5.1658393006364429 1.4912493554063986 12.6536703797751926 Cu
atom 1.2914598251591103 3.7281233885159963 12.6536703797751926 Cu
atom 3.8743794754773315 3.7281233885159963 12.6536703797751926 Cu
atom 6.4572991257955525 3.7281233885159963 12.6536703797751926 Cu
atom 2.5829196503182210 5.9649974216255943 12.6536703797751926 Cu
atom 5.1658393006364420 5.9649974216255943 12.6536703797751926 Cu
atom 7.7487589509546630 5.9649974216255943 12.6536703797751926 Cu
atom 0.0000000000000000 0.0000000000000000 14.7626154430710557 Cu
atom 2.5829196503182210 0.0000000000000000 14.7626154430710557 Cu
atom 5.1658393006364420 0.0000000000000000 14.7626154430710557 Cu
atom 1.2914598251591105 2.2368740331095980 14.7626154430710557 Cu
atom 3.8743794754773315 2.2368740331095980 14.7626154430710557 Cu
atom 6.4572991257955525 2.2368740331095980 14.7626154430710557 Cu
atom 2.5829196503182210 4.4737480662191960 14.7626154430710557 Cu
atom 5.1658393006364420 4.4737480662191960 14.7626154430710557 Cu
atom 7.7487589509546630 4.4737480662191960 14.7626154430710557 Cu
atom 1.2914598251591105 0.7456246777031993 16.8715605063669187 Cu
atom 3.8743794754773315 0.7456246777031993 16.8715605063669187 Cu
atom 6.4572991257955525 0.7456246777031993 16.8715605063669187 Cu
atom 2.5829196503182210 2.9824987108127972 16.8715605063669187 Cu
atom 5.1658393006364420 2.9824987108127972 16.8715605063669187 Cu
atom 7.7487589509546630 2.9824987108127972 16.8715605063669187 Cu
atom 3.8743794754773315 5.2193727439223956 16.8715605063669187 Cu
atom 6.4572991257955525 5.2193727439223956 16.8715605063669187 Cu
atom 9.0402187761137736 5.2193727439223956 16.8715605063669187 Cu
atom -0.0000000000000000 1.4912493554063986 18.9805055696627889 Cu
atom 2.5829196503182210 1.4912493554063986 18.9805055696627889 Cu
atom 5.1658393006364429 1.4912493554063986 18.9805055696627889 Cu
atom 1.2914598251591103 3.7281233885159963 18.9805055696627889 Cu
atom 3.8743794754773315 3.7281233885159963 18.9805055696627889 Cu
atom 6.4572991257955525 3.7281233885159963 18.9805055696627889 Cu
atom 2.5829196503182210 5.9649974216255943 18.9805055696627889 Cu
atom 5.1658393006364420 5.9649974216255943 18.9805055696627889 Cu
atom 7.7487589509546630 5.9649974216255943 18.9805055696627889 Cu
atom 0.0000000000000000 0.0000000000000000 21.0894506329586520 Cu
atom 2.5829196503182210 0.0000000000000000 21.0894506329586520 Cu
atom 5.1658393006364420 0.0000000000000000 21.0894506329586520 Cu
atom 1.2914598251591105 2.2368740331095980 21.0894506329586520 Cu
atom 3.8743794754773315 2.2368740331095980 21.0894506329586520 Cu
atom 6.4572991257955525 2.2368740331095980 21.0894506329586520 Cu
atom 2.5829196503182210 4.4737480662191960 21.0894506329586520 Cu
atom 5.1658393006364420 4.4737480662191960 21.0894506329586520 Cu
atom 7.7487589509546630 4.4737480662191960 21.0894506329586520 Cu
atom 1.2914598251591105 0.7456246777031993 23.1983956962545221 Cu
atom 3.8743794754773315 0.7456246777031993 23.1983956962545221 Cu
atom 6.4572991257955525 0.7456246777031993 23.1983956962545221 Cu
atom 2.5829196503182210 2.9824987108127972 23.1983956962545221 Cu
atom 5.1658393006364420 2.9824987108127972 23.1983956962545221 Cu
atom 7.7487589509546630 2.9824987108127972 23.1983956962545221 Cu
atom 3.8743794754773315 5.2193727439223956 23.1983956962545221 Cu
atom 6.4572991257955525 5.2193727439223956 23.1983956962545221 Cu
atom 9.0402187761137736 5.2193727439223956 23.1983956962545221 Cu
atom -0.0000000000000000 1.4912493554063986 25.3073407595503852 Cu
atom 2.5829196503182210 1.4912493554063986 25.3073407595503852 Cu
atom 5.1658393006364429 1.4912493554063986 25.3073407595503852 Cu
atom 1.2914598251591103 3.7281233885159963 25.3073407595503852 Cu
atom 3.8743794754773315 3.7281233885159963 25.3073407595503852 Cu
atom 6.4572991257955525 3.7281233885159963 25.3073407595503852 Cu
atom 2.5829196503182210 5.9649974216255943 25.3073407595503852 Cu
atom 5.1658393006364420 5.9649974216255943 25.3073407595503852 Cu
atom 7.7487589509546630 5.9649974216255943 25.3073407595503852 Cu
atom 0.0000000000000000 0.0000000000000000 27.4162858228462483 Cu
atom 2.5829196503182210 0.0000000000000000 27.4162858228462483 Cu
atom 5.1658393006364420 0.0000000000000000 27.4162858228462483 Cu
atom 1.2914598251591105 2.2368740331095980 27.4162858228462483 Cu
atom 3.8743794754773315 2.2368740331095980 27.4162858228462483 Cu
atom 6.4572991257955525 2.2368740331095980 27.4162858228462483 Cu
atom 2.5829196503182210 4.4737480662191960 27.4162858228462483 Cu
atom 5.1658393006364420 4.4737480662191960 27.4162858228462483 Cu
atom 7.7487589509546630 4.4737480662191960 27.4162858228462483 Cu
atom 1.2914598251591105 0.7456246777031993 29.5252308861421113 Cu
atom 3.8743794754773315 0.7456246777031993 29.5252308861421113 Cu
atom 6.4572991257955525 0.7456246777031993 29.5252308861421113 Cu
atom 2.5829196503182210 2.9824987108127972 29.5252308861421113 Cu
atom 5.1658393006364420 2.9824987108127972 29.5252308861421113 Cu
atom 7.7487589509546630 2.9824987108127972 29.5252308861421113 Cu
atom 3.8743794754773315 5.2193727439223956 29.5252308861421113 Cu
atom 6.4572991257955525 5.2193727439223956 29.5252308861421113 Cu
atom 9.0402187761137736 5.2193727439223956 29.5252308861421113 Cu
atom -0.0000000000000000 1.4912493554063986 31.6341759494379744 Cu
atom 2.5829196503182210 1.4912493554063986 31.6341759494379744 Cu
atom 5.1658393006364429 1.4912493554063986 31.6341759494379744 Cu
atom 1.2914598251591103 3.7281233885159963 31.6341759494379744 Cu
atom 3.8743794754773315 3.7281233885159963 31.6341759494379744 Cu
atom 6.4572991257955525 3.7281233885159963 31.6341759494379744 Cu
atom 2.5829196503182210 5.9649974216255943 31.6341759494379744 Cu
atom 5.1658393006364420 5.9649974216255943 31.6341759494379744 Cu
atom 7.7487589509546630 5.9649974216255943 31.6341759494379744 Cu
atom 0.0000000000000000 0.0000000000000000 33.7431210127338446 Cu
atom 2.5829196503182210 0.0000000000000000 33.7431210127338446 Cu
atom 5.1658393006364420 0.0000000000000000 33.7431210127338446 Cu
atom 1.2914598251591105 2.2368740331095980 33.7431210127338446 Cu
atom 3.8743794754773315 2.2368740331095980 33.7431210127338446 Cu
atom 6.4572991257955525 2.2368740331095980 33.7431210127338446 Cu
atom 2.5829196503182210 4.4737480662191960 33.7431210127338446 Cu
atom 5.1658393006364420 4.4737480662191960 33.7431210127338446 Cu
atom 7.7487589509546630 4.4737480662191960 33.7431210127338446 Cu
atom 1.2914598251591105 0.7456246777031993 35.8520660760297076 Cu
atom 3.8743794754773315 0.7456246777031993 35.8520660760297076 Cu
atom 6.4572991257955525 0.7456246777031993 35.8520660760297076 Cu
atom 2.5829196503182210 2.9824987108127972 35.8520660760297076 Cu
atom 5.1658393006364420 2.9824987108127972 35.8520660760297076 Cu
atom 7.7487589509546630 2.9824987108127972 35.8520660760297076 Cu
atom 3.8743794754773315 5.2193727439223956 35.8520660760297076 Cu
atom 6.4572991257955525 5.2193727439223956 35.8520660760297076 Cu
atom 9.0402187761137736 5.2193727439223956 35.8520660760297076 Cu
atom -0.0000000000000000 1.4912493554063986 37.9610111393255778 Cu
atom 2.5829196503182210 1.4912493554063986 37.9610111393255778 Cu
atom 5.1658393006364429 1.4912493554063986 37.9610111393255778 Cu
atom 1.2914598251591103 3.7281233885159963 37.9610111393255778 Cu
atom 3.8743794754773315 3.7281233885159963 37.9610111393255778 Cu
atom 6.4572991257955525 3.7281233885159963 37.9610111393255778 Cu
atom 2.5829196503182210 5.9649974216255943 37.9610111393255778 Cu
atom 5.1658393006364420 5.9649974216255943 37.9610111393255778 Cu
atom 7.7487589509546630 5.9649974216255943 37.9610111393255778 Cu
atom 0.0000000000000000 0.0000000000000000 40.0699562026214409 Cu
atom 2.5829196503182210 0.0000000000000000 40.0699562026214409 Cu
atom 5.1658393006364420 0.0000000000000000 40.0699562026214409 Cu
atom 1.2914598251591105 2.2368740331095980 40.0699562026214409 Cu
atom 3.8743794754773315 2.2368740331095980 40.0699562026214409 Cu
atom 6.4572991257955525 2.2368740331095980 40.0699562026214409 Cu
atom 2.5829196503182210 4.4737480662191960 40.0699562026214409 Cu
atom 5.1658393006364420 4.4737480662191960 40.0699562026214409 Cu
atom 7.7487589509546630 4.4737480662191960 40.0699562026214409 Cu
