#=======================================================
# FHI-aims file: cu111_3_68_ase.in
# Created using the Atomic Simulation Environment (ASE)
# Wed Feb 28 21:30:27 2024
#=======================================================
lattice_vector 7.8064588642994845 0.0000000000000000 0.0000000000000000 
lattice_vector 3.9032294321497423 6.7605916900815703 0.0000000000000000 
lattice_vector 0.0000000000000000 0.0000000000000000 50.6232449530891131 
atom 1.3010764773832473 0.7511768544535077 0.0000000000000000 Cu
    constrain_relaxation .true.
atom 3.9032294321497414 0.7511768544535077 0.0000000000000000 Cu
    constrain_relaxation .true.
atom 6.5053823869162368 0.7511768544535077 0.0000000000000000 Cu
    constrain_relaxation .true.
atom 2.6021529547664946 3.0047074178140307 0.0000000000000000 Cu
    constrain_relaxation .true.
atom 5.2043059095329891 3.0047074178140307 0.0000000000000000 Cu
    constrain_relaxation .true.
atom 7.8064588642994845 3.0047074178140307 0.0000000000000000 Cu
    constrain_relaxation .true.
atom 3.9032294321497418 5.2582379811745543 0.0000000000000000 Cu
    constrain_relaxation .true.
atom 6.5053823869162359 5.2582379811745543 0.0000000000000000 Cu
    constrain_relaxation .true.
atom 9.1075353416827323 5.2582379811745543 0.0000000000000000 Cu
    constrain_relaxation .true.
atom 0.0000000000000000 1.5023537089070154 2.1246489906178212 Cu
    constrain_relaxation .true.
atom 2.6021529547664950 1.5023537089070154 2.1246489906178212 Cu
    constrain_relaxation .true.
atom 5.2043059095329891 1.5023537089070154 2.1246489906178212 Cu
    constrain_relaxation .true.
atom 1.3010764773832471 3.7558842722675383 2.1246489906178212 Cu
    constrain_relaxation .true.
atom 3.9032294321497418 3.7558842722675383 2.1246489906178212 Cu
    constrain_relaxation .true.
atom 6.5053823869162368 3.7558842722675383 2.1246489906178212 Cu
    constrain_relaxation .true.
atom 2.6021529547664946 6.0094148356280614 2.1246489906178212 Cu
    constrain_relaxation .true.
atom 5.2043059095329891 6.0094148356280614 2.1246489906178212 Cu
    constrain_relaxation .true.
atom 7.8064588642994837 6.0094148356280614 2.1246489906178212 Cu
    constrain_relaxation .true.
atom 0.0000000000000000 0.0000000000000000 4.2492979812356459 Cu
atom 2.6021529547664946 0.0000000000000000 4.2492979812356459 Cu
atom 5.2043059095329891 0.0000000000000000 4.2492979812356459 Cu
atom 1.3010764773832473 2.2535305633605232 4.2492979812356459 Cu
atom 3.9032294321497418 2.2535305633605232 4.2492979812356459 Cu
atom 6.5053823869162368 2.2535305633605232 4.2492979812356459 Cu
atom 2.6021529547664946 4.5070611267210463 4.2492979812356459 Cu
atom 5.2043059095329891 4.5070611267210463 4.2492979812356459 Cu
atom 7.8064588642994837 4.5070611267210463 4.2492979812356459 Cu
atom 1.3010764773832473 0.7511768544535077 6.3739469718534707 Cu
atom 3.9032294321497414 0.7511768544535077 6.3739469718534707 Cu
atom 6.5053823869162368 0.7511768544535077 6.3739469718534707 Cu
atom 2.6021529547664946 3.0047074178140307 6.3739469718534707 Cu
atom 5.2043059095329891 3.0047074178140307 6.3739469718534707 Cu
atom 7.8064588642994845 3.0047074178140307 6.3739469718534707 Cu
atom 3.9032294321497418 5.2582379811745543 6.3739469718534707 Cu
atom 6.5053823869162359 5.2582379811745543 6.3739469718534707 Cu
atom 9.1075353416827323 5.2582379811745543 6.3739469718534707 Cu
atom 0.0000000000000000 1.5023537089070154 8.4985959624712919 Cu
atom 2.6021529547664950 1.5023537089070154 8.4985959624712919 Cu
atom 5.2043059095329891 1.5023537089070154 8.4985959624712919 Cu
atom 1.3010764773832471 3.7558842722675383 8.4985959624712919 Cu
atom 3.9032294321497418 3.7558842722675383 8.4985959624712919 Cu
atom 6.5053823869162368 3.7558842722675383 8.4985959624712919 Cu
atom 2.6021529547664946 6.0094148356280614 8.4985959624712919 Cu
atom 5.2043059095329891 6.0094148356280614 8.4985959624712919 Cu
atom 7.8064588642994837 6.0094148356280614 8.4985959624712919 Cu
atom 0.0000000000000000 0.0000000000000000 10.6232449530891131 Cu
atom 2.6021529547664946 0.0000000000000000 10.6232449530891131 Cu
atom 5.2043059095329891 0.0000000000000000 10.6232449530891131 Cu
atom 1.3010764773832473 2.2535305633605232 10.6232449530891131 Cu
atom 3.9032294321497418 2.2535305633605232 10.6232449530891131 Cu
atom 6.5053823869162368 2.2535305633605232 10.6232449530891131 Cu
atom 2.6021529547664946 4.5070611267210463 10.6232449530891131 Cu
atom 5.2043059095329891 4.5070611267210463 10.6232449530891131 Cu
atom 7.8064588642994837 4.5070611267210463 10.6232449530891131 Cu
