#=======================================================
# FHI-aims file: cu111_3_66_ase.in
# Created using the Atomic Simulation Environment (ASE)
# Wed Feb 28 21:30:31 2024
#=======================================================
lattice_vector 7.7640324574282928 0.0000000000000000 0.0000000000000000 
lattice_vector 3.8820162287141464 6.7238493439398237 0.0000000000000000 
lattice_vector 0.0000000000000000 0.0000000000000000 50.5655099261701508 
atom 1.2940054095713820 0.7470943715488693 0.0000000000000000 Cu
    constrain_relaxation .true.
atom 3.8820162287141455 0.7470943715488693 0.0000000000000000 Cu
    constrain_relaxation .true.
atom 6.4700270478569104 0.7470943715488693 0.0000000000000000 Cu
    constrain_relaxation .true.
atom 2.5880108191427640 2.9883774861954771 0.0000000000000000 Cu
    constrain_relaxation .true.
atom 5.1760216382855280 2.9883774861954771 0.0000000000000000 Cu
    constrain_relaxation .true.
atom 7.7640324574282928 2.9883774861954771 0.0000000000000000 Cu
    constrain_relaxation .true.
atom 3.8820162287141460 5.2296606008420854 0.0000000000000000 Cu
    constrain_relaxation .true.
atom 6.4700270478569095 5.2296606008420854 0.0000000000000000 Cu
    constrain_relaxation .true.
atom 9.0580378669996744 5.2296606008420854 0.0000000000000000 Cu
    constrain_relaxation .true.
atom 0.0000000000000000 1.4941887430977385 2.1131019852340316 Cu
    constrain_relaxation .true.
atom 2.5880108191427644 1.4941887430977385 2.1131019852340316 Cu
    constrain_relaxation .true.
atom 5.1760216382855280 1.4941887430977385 2.1131019852340316 Cu
    constrain_relaxation .true.
atom 1.2940054095713818 3.7354718577443462 2.1131019852340316 Cu
    constrain_relaxation .true.
atom 3.8820162287141460 3.7354718577443462 2.1131019852340316 Cu
    constrain_relaxation .true.
atom 6.4700270478569104 3.7354718577443462 2.1131019852340316 Cu
    constrain_relaxation .true.
atom 2.5880108191427640 5.9767549723909541 2.1131019852340316 Cu
    constrain_relaxation .true.
atom 5.1760216382855280 5.9767549723909541 2.1131019852340316 Cu
    constrain_relaxation .true.
atom 7.7640324574282920 5.9767549723909541 2.1131019852340316 Cu
    constrain_relaxation .true.
atom 0.0000000000000000 0.0000000000000000 4.2262039704680632 Cu
atom 2.5880108191427640 0.0000000000000000 4.2262039704680632 Cu
atom 5.1760216382855280 0.0000000000000000 4.2262039704680632 Cu
atom 1.2940054095713820 2.2412831146466079 4.2262039704680632 Cu
atom 3.8820162287141460 2.2412831146466079 4.2262039704680632 Cu
atom 6.4700270478569095 2.2412831146466079 4.2262039704680632 Cu
atom 2.5880108191427640 4.4825662292932158 4.2262039704680632 Cu
atom 5.1760216382855280 4.4825662292932158 4.2262039704680632 Cu
atom 7.7640324574282920 4.4825662292932158 4.2262039704680632 Cu
atom 1.2940054095713820 0.7470943715488693 6.3393059557020912 Cu
atom 3.8820162287141455 0.7470943715488693 6.3393059557020912 Cu
atom 6.4700270478569104 0.7470943715488693 6.3393059557020912 Cu
atom 2.5880108191427640 2.9883774861954771 6.3393059557020912 Cu
atom 5.1760216382855280 2.9883774861954771 6.3393059557020912 Cu
atom 7.7640324574282928 2.9883774861954771 6.3393059557020912 Cu
atom 3.8820162287141460 5.2296606008420854 6.3393059557020912 Cu
atom 6.4700270478569095 5.2296606008420854 6.3393059557020912 Cu
atom 9.0580378669996744 5.2296606008420854 6.3393059557020912 Cu
atom 0.0000000000000000 1.4941887430977385 8.4524079409361228 Cu
atom 2.5880108191427644 1.4941887430977385 8.4524079409361228 Cu
atom 5.1760216382855280 1.4941887430977385 8.4524079409361228 Cu
atom 1.2940054095713818 3.7354718577443462 8.4524079409361228 Cu
atom 3.8820162287141460 3.7354718577443462 8.4524079409361228 Cu
atom 6.4700270478569104 3.7354718577443462 8.4524079409361228 Cu
atom 2.5880108191427640 5.9767549723909541 8.4524079409361228 Cu
atom 5.1760216382855280 5.9767549723909541 8.4524079409361228 Cu
atom 7.7640324574282920 5.9767549723909541 8.4524079409361228 Cu
atom 0.0000000000000000 0.0000000000000000 10.5655099261701544 Cu
atom 2.5880108191427640 0.0000000000000000 10.5655099261701544 Cu
atom 5.1760216382855280 0.0000000000000000 10.5655099261701544 Cu
atom 1.2940054095713820 2.2412831146466079 10.5655099261701544 Cu
atom 3.8820162287141460 2.2412831146466079 10.5655099261701544 Cu
atom 6.4700270478569095 2.2412831146466079 10.5655099261701544 Cu
atom 2.5880108191427640 4.4825662292932158 10.5655099261701544 Cu
atom 5.1760216382855280 4.4825662292932158 10.5655099261701544 Cu
atom 7.7640324574282920 4.4825662292932158 10.5655099261701544 Cu
