#=======================================================
# FHI-aims file: cu111.in
# Created using the Atomic Simulation Environment (ASE)
# Mon Jan 24 15:13:30 2022
#=======================================================
lattice_vector 7.7487589500000000 0.0000000000000000 0.0000000000000000 
lattice_vector 3.8743794800000000 6.7106221000000001 0.0000000000000000 
lattice_vector 0.0000000000000000 0.0000000000000000 50.5447253199999977 
atom 1.2914598300000000 0.7456246800000000 0.0000000000000000 Cu
    constrain_relaxation .true.
atom 3.8743794800000000 0.7456246800000000 0.0000000000000000 Cu
    constrain_relaxation .true.
atom 6.4572991300000000 0.7456246800000000 0.0000000000000000 Cu
    constrain_relaxation .true.
atom 2.5829196500000000 2.9824987100000002 0.0000000000000000 Cu
    constrain_relaxation .true.
atom 5.1658393000000000 2.9824987100000002 0.0000000000000000 Cu
    constrain_relaxation .true.
atom 7.7487589500000000 2.9824987100000002 0.0000000000000000 Cu
    constrain_relaxation .true.
atom 3.8743794800000000 5.2193727399999998 0.0000000000000000 Cu
    constrain_relaxation .true.
atom 6.4572991300000000 5.2193727399999998 0.0000000000000000 Cu
    constrain_relaxation .true.
atom 9.0402187800000000 5.2193727399999998 0.0000000000000000 Cu
    constrain_relaxation .true.
atom 7.7487589500000000 1.4912493600000001 2.1089450599999999 Cu
    constrain_relaxation .true.
atom 2.5829196500000000 1.4912493600000001 2.1089450599999999 Cu
    constrain_relaxation .true.
atom 5.1658393000000000 1.4912493600000001 2.1089450599999999 Cu
    constrain_relaxation .true.
atom 9.0402187800000000 3.7281233899999999 2.1089450599999999 Cu
    constrain_relaxation .true.
atom 3.8743794800000000 3.7281233899999999 2.1089450599999999 Cu
    constrain_relaxation .true.
atom 6.4572991300000000 3.7281233899999999 2.1089450599999999 Cu
    constrain_relaxation .true.
atom 10.3316786000000000 5.9649974200000004 2.1089450599999999 Cu
    constrain_relaxation .true.
atom 5.1658393000000000 5.9649974200000004 2.1089450599999999 Cu
    constrain_relaxation .true.
atom 7.7487589500000000 5.9649974200000004 2.1089450599999999 Cu
    constrain_relaxation .true.
atom 11.3956779299999997 6.5747539200000000 4.2923123900000002 Cu
atom 2.7163651099999999 0.0301058000000000 4.2518503699999997 Cu
atom 9.0885633199999987 6.6363744699999998 4.2980863800000000 Cu
atom 9.0036904300000007 2.4527912000000001 4.2343852000000002 Cu
atom 4.0250938300000003 2.2776579600000000 4.3912579400000000 Cu
atom 6.4134742999999999 2.2445286599999998 4.1364241799999997 Cu
atom 2.7594323500000000 4.4773710199999996 4.1892382100000001 Cu
atom 5.2643312199999999 4.4614510500000000 4.2259074700000001 Cu
atom 7.8328620999999998 4.4954523699999998 4.1514577900000003 Cu
atom 1.2922018399999999 0.7031153300000000 6.2994898700000004 Cu
atom 3.8116814899999998 0.8137404600000000 6.4172992200000003 Cu
atom 6.5910574799999999 0.7417520300000000 6.3876372600000000 Cu
atom 2.7118381199999999 2.9175297599999999 6.4515204300000004 Cu
atom 5.2995596500000000 3.1010037700000002 6.4206544900000004 Cu
atom 7.7727569799999996 3.1980960700000001 6.2597452100000002 Cu
atom 4.0771001099999999 5.3531134600000003 6.6646458099999997 Cu
atom 6.6040729000000002 5.1926275700000000 6.5440097200000000 Cu
atom 9.2236403899999999 5.1340268399999998 6.5047047500000001 Cu
atom 7.7380727900000004 1.3942539599999999 8.4634676800000008 Cu
atom 2.6720522799999999 1.4653403800000000 8.7026620599999998 Cu
atom 8.7757904599999996 3.6976732100000000 8.5763559300000001 Cu
atom 3.8579353599999999 3.6746960700000000 8.5876407700000001 Cu
atom 5.1999702200000000 1.3517680800000000 8.5384212700000006 Cu
atom 6.3415391600000000 3.5673764299999999 8.5853799199999994 Cu
atom 10.1350306000000003 5.8985479200000004 8.8195560000000004 Cu
atom 4.9586179000000001 5.9260118999999998 8.7093563100000004 Cu
atom 7.7714673500000000 5.9589443299999996 8.4292840400000006 Cu
atom 4.7254002699999997 0.0407311500000000 10.8089375000000008 Cu
atom 6.5104385699999998 2.1913876100000000 10.8500799899999993 Cu
atom 10.0560935300000001 4.4529560699999999 10.7000853700000000 Cu
atom 5.0576825799999998 4.5120561600000002 10.5316802700000007 Cu
atom 7.5312995999999996 4.5832520199999998 10.6665332700000004 Cu
atom 7.3973485400000003 0.0974321500000000 10.8347308899999994 Cu
atom 2.3895230500000002 0.2359584600000000 11.1165231400000000 Cu
atom 8.8724484500000003 2.2661164600000001 10.4905410799999999 Cu
atom 3.6671351699999999 2.3500437600000001 10.8479944400000008 Cu
