lattice_vector     14.61120000      0.00000000      0.00000000
lattice_vector      0.00000000     10.33167860      0.00000000
lattice_vector      0.00000000      0.00000000     96.45729913
atom       1.82640000      1.29145983      0.00000000 Cu
  constrain_relaxation .true.
atom       5.47920000      1.29145983      0.00000000 Cu
  constrain_relaxation .true.
atom       9.13200000      1.29145983      0.00000000 Cu
  constrain_relaxation .true.
atom      12.78480000      1.29145983      0.00000000 Cu
  constrain_relaxation .true.
atom       1.82640000      3.87437948      0.00000000 Cu
  constrain_relaxation .true.
atom       5.47920000      3.87437948      0.00000000 Cu
  constrain_relaxation .true.
atom       9.13200000      3.87437948      0.00000000 Cu
  constrain_relaxation .true.
atom      12.78480000      3.87437948      0.00000000 Cu
  constrain_relaxation .true.
atom       1.82640000      6.45729913      0.00000000 Cu
  constrain_relaxation .true.
atom       5.47920000      6.45729913      0.00000000 Cu
  constrain_relaxation .true.
atom       9.13200000      6.45729913      0.00000000 Cu
  constrain_relaxation .true.
atom      12.78480000      6.45729913      0.00000000 Cu
  constrain_relaxation .true.
atom       1.82640000      9.04021878      0.00000000 Cu
  constrain_relaxation .true.
atom       5.47920000      9.04021878      0.00000000 Cu
  constrain_relaxation .true.
atom       9.13200000      9.04021878      0.00000000 Cu
  constrain_relaxation .true.
atom      12.78480000      9.04021878      0.00000000 Cu
  constrain_relaxation .true.
atom       0.00000000      0.00000000      1.29145983 Cu
  constrain_relaxation .true.
atom       3.65280000      0.00000000      1.29145983 Cu
  constrain_relaxation .true.
atom       7.30560000      0.00000000      1.29145983 Cu
  constrain_relaxation .true.
atom      10.95840000      0.00000000      1.29145983 Cu
  constrain_relaxation .true.
atom       0.00000000      2.58291965      1.29145983 Cu
  constrain_relaxation .true.
atom       3.65280000      2.58291965      1.29145983 Cu
  constrain_relaxation .true.
atom       7.30560000      2.58291965      1.29145983 Cu
  constrain_relaxation .true.
atom      10.95840000      2.58291965      1.29145983 Cu
  constrain_relaxation .true.
atom       0.00000000      5.16583930      1.29145983 Cu
  constrain_relaxation .true.
atom       3.65280000      5.16583930      1.29145983 Cu
  constrain_relaxation .true.
atom       7.30560000      5.16583930      1.29145983 Cu
  constrain_relaxation .true.
atom      10.95840000      5.16583930      1.29145983 Cu
  constrain_relaxation .true.
atom       0.00000000      7.74875895      1.29145983 Cu
  constrain_relaxation .true.
atom       3.65280000      7.74875895      1.29145983 Cu
  constrain_relaxation .true.
atom       7.30560000      7.74875895      1.29145983 Cu
  constrain_relaxation .true.
atom      10.95840000      7.74875895      1.29145983 Cu
  constrain_relaxation .true.
atom       1.82639907      1.29145996      2.58805652 Cu
atom       5.47920044      1.29145997      2.58805645 Cu
atom       9.13200070      1.29145994      2.58805593 Cu
atom      12.78479966      1.29145988      2.58805582 Cu
atom       1.82639937      3.87437944      2.58805677 Cu
atom       5.47920035      3.87437936      2.58805693 Cu
atom       9.13200038      3.87437934      2.58805636 Cu
atom      12.78479976      3.87437934      2.58805600 Cu
atom       1.82639931      6.45729886      2.58805678 Cu
atom       5.47920041      6.45729895      2.58805696 Cu
atom       9.13200047      6.45729905      2.58805635 Cu
atom      12.78479978      6.45729903      2.58805600 Cu
atom       1.82639903      9.04021892      2.58805650 Cu
atom       5.47920048      9.04021897      2.58805651 Cu
atom       9.13200073      9.04021887      2.58805594 Cu
atom      12.78479968      9.04021886      2.58805581 Cu
atom      -0.00000118      0.00000019      3.86192915 Cu
atom       3.65279947      0.00000029      3.86192937 Cu
atom       7.30560107      0.00000024      3.86192897 Cu
atom      10.95840054      0.00000014      3.86192877 Cu
atom      -0.00000095      2.58291958      3.86192942 Cu
atom       3.65279956      2.58291996      3.86192890 Cu
atom       7.30560066      2.58291918      3.86193065 Cu
atom      10.95840042      2.58291955      3.86192901 Cu
atom      -0.00000065      5.16583901      3.86192944 Cu
atom       3.65279965      5.16583899      3.86193030 Cu
atom       7.30560037      5.16583900      3.86193035 Cu
atom      10.95840039      5.16583908      3.86192906 Cu
atom      -0.00000103      7.74875897      3.86192935 Cu
atom       3.65279957      7.74875862      3.86192894 Cu
atom       7.30560090      7.74875936      3.86193062 Cu
atom      10.95840049      7.74875901      3.86192890 Cu
atom       1.82639850      1.29146000      5.21381803 Cu
atom       5.47920031      1.29146016      5.21381780 Cu
atom       9.13200178      1.29145992      5.21381675 Cu
atom      12.78479919      1.29145984      5.21381667 Cu
atom       1.82639855      3.87437946      5.21381848 Cu
atom       5.47920049      3.87437976      5.21381862 Cu
atom       9.13200161      3.87437947      5.21381744 Cu
atom      12.78479919      3.87437922      5.21381698 Cu
atom       1.82639850      6.45729876      5.21381862 Cu
atom       5.47920053      6.45729856      5.21381883 Cu
atom       9.13200164      6.45729872      5.21381742 Cu
atom      12.78479923      6.45729893      5.21381695 Cu
atom       1.82639848      9.04021884      5.21381824 Cu
atom       5.47920034      9.04021881      5.21381808 Cu
atom       9.13200179      9.04021905      5.21381680 Cu
atom      12.78479922      9.04021900      5.21381674 Cu
atom      -0.00000243      0.00000023      6.37375401 Cu
atom       3.65279940      0.00000018      6.37375445 Cu
atom       7.30560199      0.00000031      6.37375170 Cu
atom      10.95840066      0.00000025      6.37375384 Cu
atom      -0.00000239      2.58291949      6.37375406 Cu
atom       3.65279931      2.58291976      6.37375309 Cu
atom       7.30560202      2.58292019      6.37375323 Cu
atom      10.95840070      2.58291946      6.37375399 Cu
atom      -0.00000236      5.16583888      6.37375431 Cu
atom       3.65279931      5.16583902      6.37375754 Cu
atom       7.30560195      5.16583901      6.37375721 Cu
atom      10.95840081      5.16583903      6.37375420 Cu
atom      -0.00000248      7.74875892      6.37375412 Cu
atom       3.65279929      7.74875876      6.37375349 Cu
atom       7.30560214      7.74875840      6.37375341 Cu
atom      10.95840075      7.74875910      6.37375392 Cu