lattice_vector     10.33167860      0.00000000      0.00000000
lattice_vector      5.16583930      8.94749613      0.00000000
lattice_vector      0.00000000      0.00000000    100.54472532
atom       1.29145983      0.74562468      0.00000000 Cu
  constrain_relaxation .true.
atom       3.87437948      0.74562468      0.00000000 Cu
  constrain_relaxation .true.
atom       6.45729913      0.74562468      0.00000000 Cu
  constrain_relaxation .true.
atom       9.04021878      0.74562468      0.00000000 Cu
  constrain_relaxation .true.
atom       2.58291965      2.98249871      0.00000000 Cu
  constrain_relaxation .true.
atom       5.16583930      2.98249871      0.00000000 Cu
  constrain_relaxation .true.
atom       7.74875895      2.98249871      0.00000000 Cu
  constrain_relaxation .true.
atom      10.33167860      2.98249871      0.00000000 Cu
  constrain_relaxation .true.
atom       3.87437948      5.21937274      0.00000000 Cu
  constrain_relaxation .true.
atom       6.45729913      5.21937274      0.00000000 Cu
  constrain_relaxation .true.
atom       9.04021878      5.21937274      0.00000000 Cu
  constrain_relaxation .true.
atom      11.62313843      5.21937274      0.00000000 Cu
  constrain_relaxation .true.
atom       5.16583930      7.45624678      0.00000000 Cu
  constrain_relaxation .true.
atom       7.74875895      7.45624678      0.00000000 Cu
  constrain_relaxation .true.
atom      10.33167860      7.45624678      0.00000000 Cu
  constrain_relaxation .true.
atom      12.91459825      7.45624678      0.00000000 Cu
  constrain_relaxation .true.
atom       0.00000000      1.49124936      2.10894506 Cu
  constrain_relaxation .true.
atom       2.58291965      1.49124936      2.10894506 Cu
  constrain_relaxation .true.
atom       5.16583930      1.49124936      2.10894506 Cu
  constrain_relaxation .true.
atom       7.74875895      1.49124936      2.10894506 Cu
  constrain_relaxation .true.
atom       1.29145983      3.72812339      2.10894506 Cu
  constrain_relaxation .true.
atom       3.87437948      3.72812339      2.10894506 Cu
  constrain_relaxation .true.
atom       6.45729913      3.72812339      2.10894506 Cu
  constrain_relaxation .true.
atom       9.04021878      3.72812339      2.10894506 Cu
  constrain_relaxation .true.
atom       2.58291965      5.96499742      2.10894506 Cu
  constrain_relaxation .true.
atom       5.16583930      5.96499742      2.10894506 Cu
  constrain_relaxation .true.
atom       7.74875895      5.96499742      2.10894506 Cu
  constrain_relaxation .true.
atom      10.33167860      5.96499742      2.10894506 Cu
  constrain_relaxation .true.
atom       3.87437948      8.20187145      2.10894506 Cu
  constrain_relaxation .true.
atom       6.45729913      8.20187145      2.10894506 Cu
  constrain_relaxation .true.
atom       9.04021878      8.20187145      2.10894506 Cu
  constrain_relaxation .true.
atom      11.62313843      8.20187145      2.10894506 Cu
  constrain_relaxation .true.
atom       0.00000001     -0.00000064      4.20809870 Cu
atom       2.58291965     -0.00000058      4.20809872 Cu
atom       5.16583915     -0.00000069      4.20809871 Cu
atom       7.74875885     -0.00000070      4.20809866 Cu
atom       1.29145985      2.23687346      4.20809875 Cu
atom       3.87437949      2.23687344      4.20809876 Cu
atom       6.45729900      2.23687334      4.20809862 Cu
atom       9.04021872      2.23687334      4.20809870 Cu
atom       2.58291969      4.47374744      4.20809873 Cu
atom       5.16583934      4.47374746      4.20809870 Cu
atom       7.74875886      4.47374729      4.20809866 Cu
atom      10.33167851      4.47374740      4.20809871 Cu
atom       3.87437940      6.71062143      4.20809871 Cu
atom       6.45729912      6.71062149      4.20809869 Cu
atom       9.04021859      6.71062136      4.20809868 Cu
atom      11.62313822      6.71062136      4.20809871 Cu
atom       1.29145983      0.74567517      6.31428824 Cu
atom       3.87437951      0.74567514      6.31428831 Cu
atom       6.45729911      0.74567504      6.31428817 Cu
atom       9.04021876      0.74567509      6.31428816 Cu
atom       2.58291968      2.98254921      6.31428834 Cu
atom       5.16583945      2.98254920      6.31428822 Cu
atom       7.74875894      2.98254914      6.31428827 Cu
atom      10.33167856      2.98254917      6.31428828 Cu
atom       3.87437939      5.21942312      6.31428831 Cu
atom       6.45729909      5.21942315      6.31428826 Cu
atom       9.04021856      5.21942314      6.31428815 Cu
atom      11.62313825      5.21942309      6.31428826 Cu
atom       5.16583926      7.45629718      6.31428818 Cu
atom       7.74875886      7.45629725      6.31428826 Cu
atom      10.33167842      7.45629713      6.31428822 Cu
atom      12.91459807      7.45629710      6.31428820 Cu
atom       0.00000006      1.49132457      8.41325344 Cu
atom       2.58291974      1.49132459      8.41325354 Cu
atom       5.16583941      1.49132461      8.41325347 Cu
atom       7.74875898      1.49132454      8.41325335 Cu
atom       1.29145990      3.72819864      8.41325353 Cu
atom       3.87437960      3.72819861      8.41325354 Cu
atom       6.45729925      3.72819858      8.41325353 Cu
atom       9.04021878      3.72819858      8.41325348 Cu
atom       2.58291955      5.96507259      8.41325344 Cu
atom       5.16583929      5.96507261      8.41325343 Cu
atom       7.74875886      5.96507260      8.41325348 Cu
atom      10.33167848      5.96507255      8.41325339 Cu
atom       3.87437945      8.20194662      8.41325332 Cu
atom       6.45729914      8.20194668      8.41325345 Cu
atom       9.04021874      8.20194664      8.41325347 Cu
atom      11.62313840      8.20194655      8.41325337 Cu
atom       0.00000000      0.00007214     10.50090193 Cu
atom       2.58291969      0.00007219     10.50090221 Cu
atom       5.16583933      0.00007212     10.50090195 Cu
atom       7.74875895      0.00007211     10.50090192 Cu
atom       1.29145991      2.23694618     10.50090232 Cu
atom       3.87437959      2.23694627     10.50090227 Cu
atom       6.45729923      2.23694613     10.50090209 Cu
atom       9.04021883      2.23694617     10.50090204 Cu
atom       2.58291960      4.47382019     10.50090234 Cu
atom       5.16583927      4.47382014     10.50090207 Cu
atom       7.74875888      4.47382019     10.50090218 Cu
atom      10.33167849      4.47382014     10.50090210 Cu
atom       3.87437940      6.71069422     10.50090191 Cu
atom       6.45729906      6.71069424     10.50090208 Cu
atom       9.04021869      6.71069426     10.50090200 Cu
atom      11.62313826      6.71069420     10.50090225 Cu