#=======================================================
# FHI-aims file: cu110_3_68_ase.in
# Created using the Atomic Simulation Environment (ASE)
# Wed Feb 28 21:30:27 2024
#=======================================================
lattice_vector 11.0400000000000009 0.0000000000000000 0.0000000000000000 
lattice_vector 0.0000000000000000 7.8064588642994845 0.0000000000000000 
lattice_vector 0.0000000000000000 0.0000000000000000 46.5053823869162386 
atom 1.8400000000000001 1.3010764773832473 0.0000000000000000 Cu
    constrain_relaxation .true.
atom 5.5200000000000005 1.3010764773832473 0.0000000000000000 Cu
    constrain_relaxation .true.
atom 9.2000000000000011 1.3010764773832473 0.0000000000000000 Cu
    constrain_relaxation .true.
atom 1.8400000000000001 3.9032294321497418 0.0000000000000000 Cu
    constrain_relaxation .true.
atom 5.5200000000000005 3.9032294321497418 0.0000000000000000 Cu
    constrain_relaxation .true.
atom 9.2000000000000011 3.9032294321497418 0.0000000000000000 Cu
    constrain_relaxation .true.
atom 1.8400000000000001 6.5053823869162368 0.0000000000000000 Cu
    constrain_relaxation .true.
atom 5.5200000000000005 6.5053823869162368 0.0000000000000000 Cu
    constrain_relaxation .true.
atom 9.2000000000000011 6.5053823869162368 0.0000000000000000 Cu
    constrain_relaxation .true.
atom 0.0000000000000000 0.0000000000000000 1.3010764773832477 Cu
    constrain_relaxation .true.
atom 3.6800000000000002 0.0000000000000000 1.3010764773832477 Cu
    constrain_relaxation .true.
atom 7.3600000000000003 0.0000000000000000 1.3010764773832477 Cu
    constrain_relaxation .true.
atom 0.0000000000000000 2.6021529547664946 1.3010764773832477 Cu
    constrain_relaxation .true.
atom 3.6800000000000002 2.6021529547664946 1.3010764773832477 Cu
    constrain_relaxation .true.
atom 7.3600000000000003 2.6021529547664946 1.3010764773832477 Cu
    constrain_relaxation .true.
atom 0.0000000000000000 5.2043059095329891 1.3010764773832477 Cu
    constrain_relaxation .true.
atom 3.6800000000000002 5.2043059095329891 1.3010764773832477 Cu
    constrain_relaxation .true.
atom 7.3600000000000003 5.2043059095329891 1.3010764773832477 Cu
    constrain_relaxation .true.
atom 1.8400000000000001 1.3010764773832473 2.6021529547664954 Cu
atom 5.5200000000000005 1.3010764773832473 2.6021529547664954 Cu
atom 9.2000000000000011 1.3010764773832473 2.6021529547664954 Cu
atom 1.8400000000000001 3.9032294321497418 2.6021529547664954 Cu
atom 5.5200000000000005 3.9032294321497418 2.6021529547664954 Cu
atom 9.2000000000000011 3.9032294321497418 2.6021529547664954 Cu
atom 1.8400000000000001 6.5053823869162368 2.6021529547664954 Cu
atom 5.5200000000000005 6.5053823869162368 2.6021529547664954 Cu
atom 9.2000000000000011 6.5053823869162368 2.6021529547664954 Cu
atom 0.0000000000000000 0.0000000000000000 3.9032294321497432 Cu
atom 3.6800000000000002 0.0000000000000000 3.9032294321497432 Cu
atom 7.3600000000000003 0.0000000000000000 3.9032294321497432 Cu
atom 0.0000000000000000 2.6021529547664946 3.9032294321497432 Cu
atom 3.6800000000000002 2.6021529547664946 3.9032294321497432 Cu
atom 7.3600000000000003 2.6021529547664946 3.9032294321497432 Cu
atom 0.0000000000000000 5.2043059095329891 3.9032294321497432 Cu
atom 3.6800000000000002 5.2043059095329891 3.9032294321497432 Cu
atom 7.3600000000000003 5.2043059095329891 3.9032294321497432 Cu
atom 1.8400000000000001 1.3010764773832473 5.2043059095329909 Cu
atom 5.5200000000000005 1.3010764773832473 5.2043059095329909 Cu
atom 9.2000000000000011 1.3010764773832473 5.2043059095329909 Cu
atom 1.8400000000000001 3.9032294321497418 5.2043059095329909 Cu
atom 5.5200000000000005 3.9032294321497418 5.2043059095329909 Cu
atom 9.2000000000000011 3.9032294321497418 5.2043059095329909 Cu
atom 1.8400000000000001 6.5053823869162368 5.2043059095329909 Cu
atom 5.5200000000000005 6.5053823869162368 5.2043059095329909 Cu
atom 9.2000000000000011 6.5053823869162368 5.2043059095329909 Cu
atom 0.0000000000000000 0.0000000000000000 6.5053823869162386 Cu
atom 3.6800000000000002 0.0000000000000000 6.5053823869162386 Cu
atom 7.3600000000000003 0.0000000000000000 6.5053823869162386 Cu
atom 0.0000000000000000 2.6021529547664946 6.5053823869162386 Cu
atom 3.6800000000000002 2.6021529547664946 6.5053823869162386 Cu
atom 7.3600000000000003 2.6021529547664946 6.5053823869162386 Cu
atom 0.0000000000000000 5.2043059095329891 6.5053823869162386 Cu
atom 3.6800000000000002 5.2043059095329891 6.5053823869162386 Cu
atom 7.3600000000000003 5.2043059095329891 6.5053823869162386 Cu
