#=======================================================
# FHI-aims file: cu111_3_71_ase.in
# Created using the Atomic Simulation Environment (ASE)
# Wed Feb 28 21:30:38 2024
#=======================================================
lattice_vector 7.8700984746062739 0.0000000000000000 0.0000000000000000 
lattice_vector 3.9350492373031369 6.8157052092941921 0.0000000000000000 
lattice_vector 0.0000000000000000 0.0000000000000000 50.7098474934675636 
atom 1.3116830791010456 0.7573005788104658 0.0000000000000000 Cu
    constrain_relaxation .true.
atom 3.9350492373031369 0.7573005788104658 0.0000000000000000 Cu
    constrain_relaxation .true.
atom 6.5584153955052287 0.7573005788104658 0.0000000000000000 Cu
    constrain_relaxation .true.
atom 2.6233661582020913 3.0292023152418630 0.0000000000000000 Cu
    constrain_relaxation .true.
atom 5.2467323164041826 3.0292023152418630 0.0000000000000000 Cu
    constrain_relaxation .true.
atom 7.8700984746062739 3.0292023152418630 0.0000000000000000 Cu
    constrain_relaxation .true.
atom 3.9350492373031369 5.3011040516732608 0.0000000000000000 Cu
    constrain_relaxation .true.
atom 6.5584153955052287 5.3011040516732608 0.0000000000000000 Cu
    constrain_relaxation .true.
atom 9.1817815537073209 5.3011040516732608 0.0000000000000000 Cu
    constrain_relaxation .true.
atom -0.0000000000000000 1.5146011576209315 2.1419694986935127 Cu
    constrain_relaxation .true.
atom 2.6233661582020913 1.5146011576209315 2.1419694986935127 Cu
    constrain_relaxation .true.
atom 5.2467323164041835 1.5146011576209315 2.1419694986935127 Cu
    constrain_relaxation .true.
atom 1.3116830791010454 3.7865028940523286 2.1419694986935127 Cu
    constrain_relaxation .true.
atom 3.9350492373031369 3.7865028940523286 2.1419694986935127 Cu
    constrain_relaxation .true.
atom 6.5584153955052287 3.7865028940523286 2.1419694986935127 Cu
    constrain_relaxation .true.
atom 2.6233661582020913 6.0584046304837260 2.1419694986935127 Cu
    constrain_relaxation .true.
atom 5.2467323164041826 6.0584046304837260 2.1419694986935127 Cu
    constrain_relaxation .true.
atom 7.8700984746062739 6.0584046304837260 2.1419694986935127 Cu
    constrain_relaxation .true.
atom 0.0000000000000000 0.0000000000000000 4.2839389973870254 Cu
atom 2.6233661582020913 0.0000000000000000 4.2839389973870254 Cu
atom 5.2467323164041826 0.0000000000000000 4.2839389973870254 Cu
atom 1.3116830791010456 2.2719017364313974 4.2839389973870254 Cu
atom 3.9350492373031369 2.2719017364313974 4.2839389973870254 Cu
atom 6.5584153955052287 2.2719017364313974 4.2839389973870254 Cu
atom 2.6233661582020913 4.5438034728627947 4.2839389973870254 Cu
atom 5.2467323164041826 4.5438034728627947 4.2839389973870254 Cu
atom 7.8700984746062739 4.5438034728627947 4.2839389973870254 Cu
atom 1.3116830791010456 0.7573005788104658 6.4259084960805346 Cu
atom 3.9350492373031369 0.7573005788104658 6.4259084960805346 Cu
atom 6.5584153955052287 0.7573005788104658 6.4259084960805346 Cu
atom 2.6233661582020913 3.0292023152418630 6.4259084960805346 Cu
atom 5.2467323164041826 3.0292023152418630 6.4259084960805346 Cu
atom 7.8700984746062739 3.0292023152418630 6.4259084960805346 Cu
atom 3.9350492373031369 5.3011040516732608 6.4259084960805346 Cu
atom 6.5584153955052287 5.3011040516732608 6.4259084960805346 Cu
atom 9.1817815537073209 5.3011040516732608 6.4259084960805346 Cu
atom -0.0000000000000000 1.5146011576209315 8.5678779947740473 Cu
atom 2.6233661582020913 1.5146011576209315 8.5678779947740473 Cu
atom 5.2467323164041835 1.5146011576209315 8.5678779947740473 Cu
atom 1.3116830791010454 3.7865028940523286 8.5678779947740473 Cu
atom 3.9350492373031369 3.7865028940523286 8.5678779947740473 Cu
atom 6.5584153955052287 3.7865028940523286 8.5678779947740473 Cu
atom 2.6233661582020913 6.0584046304837260 8.5678779947740473 Cu
atom 5.2467323164041826 6.0584046304837260 8.5678779947740473 Cu
atom 7.8700984746062739 6.0584046304837260 8.5678779947740473 Cu
atom 0.0000000000000000 0.0000000000000000 10.7098474934675600 Cu
atom 2.6233661582020913 0.0000000000000000 10.7098474934675600 Cu
atom 5.2467323164041826 0.0000000000000000 10.7098474934675600 Cu
atom 1.3116830791010456 2.2719017364313974 10.7098474934675600 Cu
atom 3.9350492373031369 2.2719017364313974 10.7098474934675600 Cu
atom 6.5584153955052287 2.2719017364313974 10.7098474934675600 Cu
atom 2.6233661582020913 4.5438034728627947 10.7098474934675600 Cu
atom 5.2467323164041826 4.5438034728627947 10.7098474934675600 Cu
atom 7.8700984746062739 4.5438034728627947 10.7098474934675600 Cu
