#=======================================================
# FHI-aims file: cu110_3_71_ase.in
# Created using the Atomic Simulation Environment (ASE)
# Wed Feb 28 21:30:38 2024
#=======================================================
lattice_vector 11.1299999999999990 0.0000000000000000 0.0000000000000000 
lattice_vector 0.0000000000000000 7.8700984746062739 0.0000000000000000 
lattice_vector 0.0000000000000000 0.0000000000000000 46.5584153955052287 
atom 1.8549999999999998 1.3116830791010456 0.0000000000000000 Cu
    constrain_relaxation .true.
atom 5.5649999999999995 1.3116830791010456 0.0000000000000000 Cu
    constrain_relaxation .true.
atom 9.2749999999999986 1.3116830791010456 0.0000000000000000 Cu
    constrain_relaxation .true.
atom 1.8549999999999998 3.9350492373031369 0.0000000000000000 Cu
    constrain_relaxation .true.
atom 5.5649999999999995 3.9350492373031369 0.0000000000000000 Cu
    constrain_relaxation .true.
atom 9.2749999999999986 3.9350492373031369 0.0000000000000000 Cu
    constrain_relaxation .true.
atom 1.8549999999999998 6.5584153955052287 0.0000000000000000 Cu
    constrain_relaxation .true.
atom 5.5649999999999995 6.5584153955052287 0.0000000000000000 Cu
    constrain_relaxation .true.
atom 9.2749999999999986 6.5584153955052287 0.0000000000000000 Cu
    constrain_relaxation .true.
atom 0.0000000000000000 0.0000000000000000 1.3116830791010443 Cu
    constrain_relaxation .true.
atom 3.7099999999999995 0.0000000000000000 1.3116830791010443 Cu
    constrain_relaxation .true.
atom 7.4199999999999990 0.0000000000000000 1.3116830791010443 Cu
    constrain_relaxation .true.
atom 0.0000000000000000 2.6233661582020913 1.3116830791010443 Cu
    constrain_relaxation .true.
atom 3.7099999999999995 2.6233661582020913 1.3116830791010443 Cu
    constrain_relaxation .true.
atom 7.4199999999999990 2.6233661582020913 1.3116830791010443 Cu
    constrain_relaxation .true.
atom 0.0000000000000000 5.2467323164041826 1.3116830791010443 Cu
    constrain_relaxation .true.
atom 3.7099999999999995 5.2467323164041826 1.3116830791010443 Cu
    constrain_relaxation .true.
atom 7.4199999999999990 5.2467323164041826 1.3116830791010443 Cu
    constrain_relaxation .true.
atom 1.8549999999999998 1.3116830791010456 2.6233661582020922 Cu
atom 5.5649999999999995 1.3116830791010456 2.6233661582020922 Cu
atom 9.2749999999999986 1.3116830791010456 2.6233661582020922 Cu
atom 1.8549999999999998 3.9350492373031369 2.6233661582020922 Cu
atom 5.5649999999999995 3.9350492373031369 2.6233661582020922 Cu
atom 9.2749999999999986 3.9350492373031369 2.6233661582020922 Cu
atom 1.8549999999999998 6.5584153955052287 2.6233661582020922 Cu
atom 5.5649999999999995 6.5584153955052287 2.6233661582020922 Cu
atom 9.2749999999999986 6.5584153955052287 2.6233661582020922 Cu
atom 0.0000000000000000 0.0000000000000000 3.9350492373031365 Cu
atom 3.7099999999999995 0.0000000000000000 3.9350492373031365 Cu
atom 7.4199999999999990 0.0000000000000000 3.9350492373031365 Cu
atom 0.0000000000000000 2.6233661582020913 3.9350492373031365 Cu
atom 3.7099999999999995 2.6233661582020913 3.9350492373031365 Cu
atom 7.4199999999999990 2.6233661582020913 3.9350492373031365 Cu
atom 0.0000000000000000 5.2467323164041826 3.9350492373031365 Cu
atom 3.7099999999999995 5.2467323164041826 3.9350492373031365 Cu
atom 7.4199999999999990 5.2467323164041826 3.9350492373031365 Cu
atom 1.8549999999999998 1.3116830791010456 5.2467323164041844 Cu
atom 5.5649999999999995 1.3116830791010456 5.2467323164041844 Cu
atom 9.2749999999999986 1.3116830791010456 5.2467323164041844 Cu
atom 1.8549999999999998 3.9350492373031369 5.2467323164041844 Cu
atom 5.5649999999999995 3.9350492373031369 5.2467323164041844 Cu
atom 9.2749999999999986 3.9350492373031369 5.2467323164041844 Cu
atom 1.8549999999999998 6.5584153955052287 5.2467323164041844 Cu
atom 5.5649999999999995 6.5584153955052287 5.2467323164041844 Cu
atom 9.2749999999999986 6.5584153955052287 5.2467323164041844 Cu
atom 0.0000000000000000 0.0000000000000000 6.5584153955052287 Cu
atom 3.7099999999999995 0.0000000000000000 6.5584153955052287 Cu
atom 7.4199999999999990 0.0000000000000000 6.5584153955052287 Cu
atom 0.0000000000000000 2.6233661582020913 6.5584153955052287 Cu
atom 3.7099999999999995 2.6233661582020913 6.5584153955052287 Cu
atom 7.4199999999999990 2.6233661582020913 6.5584153955052287 Cu
atom 0.0000000000000000 5.2467323164041826 6.5584153955052287 Cu
atom 3.7099999999999995 5.2467323164041826 6.5584153955052287 Cu
atom 7.4199999999999990 5.2467323164041826 6.5584153955052287 Cu
