#=======================================================
# FHI-aims file: cu110_3.in
# Created using the Atomic Simulation Environment (ASE)
# Wed Jan 26 12:10:24 2022
#=======================================================
lattice_vector 10.9583999999999993 0.0000000000000000 0.0000000000000000 
lattice_vector 0.0000000000000000 7.7487589500000000 0.0000000000000000 
lattice_vector 0.0000000000000000 0.0000000000000000 46.4572991300000027 
atom 1.8264000000000000 1.2914598300000000 0.0000000000000000 Cu
    constrain_relaxation .true.
atom 5.4791999999999996 1.2914598300000000 0.0000000000000000 Cu
    constrain_relaxation .true.
atom 9.1319999999999997 1.2914598300000000 0.0000000000000000 Cu
    constrain_relaxation .true.
atom 1.8264000000000000 3.8743794800000000 0.0000000000000000 Cu
    constrain_relaxation .true.
atom 5.4791999999999996 3.8743794800000000 0.0000000000000000 Cu
    constrain_relaxation .true.
atom 9.1319999999999997 3.8743794800000000 0.0000000000000000 Cu
    constrain_relaxation .true.
atom 1.8264000000000000 6.4572991300000000 0.0000000000000000 Cu
    constrain_relaxation .true.
atom 5.4791999999999996 6.4572991300000000 0.0000000000000000 Cu
    constrain_relaxation .true.
atom 9.1319999999999997 6.4572991300000000 0.0000000000000000 Cu
    constrain_relaxation .true.
atom 0.0000000000000000 0.0000000000000000 1.2914598300000000 Cu
    constrain_relaxation .true.
atom 3.6528000000000000 0.0000000000000000 1.2914598300000000 Cu
    constrain_relaxation .true.
atom 7.3055999999999992 0.0000000000000000 1.2914598300000000 Cu
    constrain_relaxation .true.
atom 0.0000000000000000 2.5829196500000000 1.2914598300000000 Cu
    constrain_relaxation .true.
atom 3.6528000000000000 2.5829196500000000 1.2914598300000000 Cu
    constrain_relaxation .true.
atom 7.3055999999999992 2.5829196500000000 1.2914598300000000 Cu
    constrain_relaxation .true.
atom 0.0000000000000000 5.1658393000000000 1.2914598300000000 Cu
    constrain_relaxation .true.
atom 3.6528000000000000 5.1658393000000000 1.2914598300000000 Cu
    constrain_relaxation .true.
atom 7.3055999999999992 5.1658393000000000 1.2914598300000000 Cu
    constrain_relaxation .true.
atom 1.7559496699999999 1.4767540500000000 2.4685831399999998 Cu
atom 5.4377904299999997 1.2170854099999999 2.6074451800000000 Cu
atom 9.1877878199999987 1.2602196100000000 2.5646972899999998 Cu
atom 1.7808634000000001 4.0102288200000000 2.6505110799999998 Cu
atom 5.5228398699999994 3.8563532000000000 2.8479858299999998 Cu
atom 8.9265122199999993 3.7533126600000002 2.7727802499999998 Cu
atom 1.8218660300000000 6.3680184300000002 2.7719938200000001 Cu
atom 5.6707781599999993 6.4267904099999997 2.5135720099999999 Cu
atom 9.1200362399999992 6.6021520300000001 2.7321637399999998 Cu
atom 0.0331623200000000 7.6414680600000002 4.0633836199999998 Cu
atom 3.6337008300000000 0.1108931100000000 3.8843175099999998 Cu
atom 0.1443415100000000 2.5108134899999999 3.8528888000000001 Cu
atom 3.6855376799999999 2.6043680199999999 3.8226320800000000 Cu
atom 7.3232257399999998 7.6900662100000003 3.9404679400000000 Cu
atom 7.4174582999999998 2.3679383199999999 3.8425548300000001 Cu
atom 0.1726284200000000 5.1649688800000000 4.1927117999999997 Cu
atom 3.7751215199999999 5.2228167899999995 3.7726066100000000 Cu
atom 7.4955760299999987 5.0544529699999998 4.3329200999999999 Cu
atom 1.8959767999999999 1.3421315300000001 5.2723650099999997 Cu
atom 5.5214226399999990 0.9598813600000000 5.1422754099999999 Cu
atom 1.9064072400000001 3.9275079100000001 5.3136492000000004 Cu
atom 5.5714027099999992 3.9889459400000002 5.4318330200000000 Cu
atom 9.1181692399999985 1.3234287700000000 5.2102548899999999 Cu
atom 9.3197126799999985 3.9442441499999998 5.3856817699999997 Cu
atom 2.0008839100000002 6.3604355799999999 5.5519489999999996 Cu
atom 5.4968866299999997 6.3178819199999996 5.3863712499999998 Cu
atom 9.1347755099999990 6.6289075300000002 5.5083420099999998 Cu
atom 0.3254616600000000 7.7161892900000000 6.4544986599999996 Cu
atom 3.5944857400000001 0.0459801100000000 6.7061471800000003 Cu
atom 0.0629714900000000 2.4185663200000000 6.5453425000000003 Cu
atom 3.8561990900000001 2.5971853999999999 6.5724104299999997 Cu
atom 7.0206554599999986 0.0898429100000000 6.6833700599999997 Cu
atom 7.3524225899999998 2.6231667800000000 6.4508289899999998 Cu
atom 0.2285184000000000 5.1906391799999998 6.6248051700000001 Cu
atom 3.7895789199999999 4.9661222100000000 6.6483412299999998 Cu
atom 7.5091824499999991 5.2089789599999996 6.6064240999999999 Cu
