#=======================================================
# FHI-aims file: cu211_3_68_3x4_ase.in
# Created using the Atomic Simulation Environment (ASE)
# Wed Feb 28 21:30:27 2024
#=======================================================
lattice_vector 6.3739469718534698 0.0000000000000000 0.0000000000000000 
lattice_vector 0.0000000000000000 10.4086118190659800 0.0000000000000000 
lattice_vector 0.0000000000000000 0.0000000000000000 52.7700065257096327 
atom 4.2492979812356459 1.3010764773832477 -0.0000000000000000 Cu
    constrain_relaxation .true.
atom 4.2492979812356459 3.9032294321497427 -0.0000000000000000 Cu
    constrain_relaxation .true.
atom 4.2492979812356459 6.5053823869162377 -0.0000000000000000 Cu
    constrain_relaxation .true.
atom 4.2492979812356459 9.1075353416827323 -0.0000000000000000 Cu
    constrain_relaxation .true.
atom 2.1246489906178230 0.0000000000000001 0.7511768544535045 Cu
    constrain_relaxation .true.
atom 2.1246489906178230 2.6021529547664950 0.7511768544535045 Cu
    constrain_relaxation .true.
atom 2.1246489906178230 5.2043059095329900 0.7511768544535045 Cu
    constrain_relaxation .true.
atom 2.1246489906178230 7.8064588642994845 0.7511768544535045 Cu
    constrain_relaxation .true.
atom -0.0000000000000001 1.3010764773832477 1.5023537089070160 Cu
    constrain_relaxation .true.
atom -0.0000000000000001 3.9032294321497427 1.5023537089070160 Cu
    constrain_relaxation .true.
atom -0.0000000000000001 6.5053823869162377 1.5023537089070160 Cu
    constrain_relaxation .true.
atom -0.0000000000000001 9.1075353416827323 1.5023537089070160 Cu
    constrain_relaxation .true.
atom 4.2492979812356459 0.0000000000000001 2.2535305633605205 Cu
    constrain_relaxation .true.
atom 4.2492979812356459 2.6021529547664950 2.2535305633605205 Cu
    constrain_relaxation .true.
atom 4.2492979812356459 5.2043059095329900 2.2535305633605205 Cu
    constrain_relaxation .true.
atom 4.2492979812356459 7.8064588642994845 2.2535305633605205 Cu
    constrain_relaxation .true.
atom 2.1246489906178230 1.3010764773832477 3.0047074178140321 Cu
    constrain_relaxation .true.
atom 2.1246489906178230 3.9032294321497427 3.0047074178140321 Cu
    constrain_relaxation .true.
atom 2.1246489906178230 6.5053823869162377 3.0047074178140321 Cu
    constrain_relaxation .true.
atom 2.1246489906178230 9.1075353416827323 3.0047074178140321 Cu
    constrain_relaxation .true.
atom 0.0000000000000000 0.0000000000000000 3.7558842722675365 Cu
    constrain_relaxation .true.
atom 0.0000000000000000 2.6021529547664950 3.7558842722675365 Cu
    constrain_relaxation .true.
atom 0.0000000000000000 5.2043059095329900 3.7558842722675365 Cu
    constrain_relaxation .true.
atom 0.0000000000000000 7.8064588642994845 3.7558842722675365 Cu
    constrain_relaxation .true.
atom 4.2492979812356459 1.3010764773832477 4.5070611267210445 Cu
atom 4.2492979812356459 3.9032294321497427 4.5070611267210445 Cu
atom 4.2492979812356459 6.5053823869162377 4.5070611267210445 Cu
atom 4.2492979812356459 9.1075353416827323 4.5070611267210445 Cu
atom 2.1246489906178230 0.0000000000000001 5.2582379811745525 Cu
atom 2.1246489906178230 2.6021529547664950 5.2582379811745525 Cu
atom 2.1246489906178230 5.2043059095329900 5.2582379811745525 Cu
atom 2.1246489906178230 7.8064588642994845 5.2582379811745525 Cu
atom -0.0000000000000001 1.3010764773832477 6.0094148356280606 Cu
atom -0.0000000000000001 3.9032294321497427 6.0094148356280606 Cu
atom -0.0000000000000001 6.5053823869162377 6.0094148356280606 Cu
atom -0.0000000000000001 9.1075353416827323 6.0094148356280606 Cu
atom 4.2492979812356459 0.0000000000000001 6.7605916900815686 Cu
atom 4.2492979812356459 2.6021529547664950 6.7605916900815686 Cu
atom 4.2492979812356459 5.2043059095329900 6.7605916900815686 Cu
atom 4.2492979812356459 7.8064588642994845 6.7605916900815686 Cu
atom 2.1246489906178230 1.3010764773832477 7.5117685445350766 Cu
atom 2.1246489906178230 3.9032294321497427 7.5117685445350766 Cu
atom 2.1246489906178230 6.5053823869162377 7.5117685445350766 Cu
atom 2.1246489906178230 9.1075353416827323 7.5117685445350766 Cu
atom 0.0000000000000000 0.0000000000000000 8.2629453989885846 Cu
atom 0.0000000000000000 2.6021529547664950 8.2629453989885846 Cu
atom 0.0000000000000000 5.2043059095329900 8.2629453989885846 Cu
atom 0.0000000000000000 7.8064588642994845 8.2629453989885846 Cu
atom 4.2492979812356459 1.3010764773832477 9.0141222534420926 Cu
atom 4.2492979812356459 3.9032294321497427 9.0141222534420926 Cu
atom 4.2492979812356459 6.5053823869162377 9.0141222534420926 Cu
atom 4.2492979812356459 9.1075353416827323 9.0141222534420926 Cu
atom 2.1246489906178230 0.0000000000000001 9.7652991078956006 Cu
atom 2.1246489906178230 2.6021529547664950 9.7652991078956006 Cu
atom 2.1246489906178230 5.2043059095329900 9.7652991078956006 Cu
atom 2.1246489906178230 7.8064588642994845 9.7652991078956006 Cu
atom -0.0000000000000001 1.3010764773832477 10.5164759623491086 Cu
atom -0.0000000000000001 3.9032294321497427 10.5164759623491086 Cu
atom -0.0000000000000001 6.5053823869162377 10.5164759623491086 Cu
atom -0.0000000000000001 9.1075353416827323 10.5164759623491086 Cu
atom 4.2492979812356459 0.0000000000000001 11.2676528168026167 Cu
atom 4.2492979812356459 2.6021529547664950 11.2676528168026167 Cu
atom 4.2492979812356459 5.2043059095329900 11.2676528168026167 Cu
atom 4.2492979812356459 7.8064588642994845 11.2676528168026167 Cu
atom 2.1246489906178230 1.3010764773832477 12.0188296712561247 Cu
atom 2.1246489906178230 3.9032294321497427 12.0188296712561247 Cu
atom 2.1246489906178230 6.5053823869162377 12.0188296712561247 Cu
atom 2.1246489906178230 9.1075353416827323 12.0188296712561247 Cu
atom 0.0000000000000000 0.0000000000000000 12.7700065257096327 Cu
atom 0.0000000000000000 2.6021529547664950 12.7700065257096327 Cu
atom 0.0000000000000000 5.2043059095329900 12.7700065257096327 Cu
atom 0.0000000000000000 7.8064588642994845 12.7700065257096327 Cu
