#=======================================================
# FHI-aims file: cu211_2.in
# Created using the Atomic Simulation Environment (ASE)
# Wed Jan 26 11:27:11 2022
#=======================================================
lattice_vector 6.3268351899999997 0.0000000000000000 0.0000000000000000 
lattice_vector 0.0000000000000000 7.7487589500000000 0.0000000000000000 
lattice_vector 0.0000000000000000 0.0000000000000000 52.6756195199999979 
atom 4.2178901299999998 1.2914598300000000 0.0000000000000000 Cu
    constrain_relaxation .true.
atom 4.2178901299999998 3.8743794800000000 0.0000000000000000 Cu
    constrain_relaxation .true.
atom 4.2178901299999998 6.4572991300000000 0.0000000000000000 Cu
    constrain_relaxation .true.
atom 2.1089450599999999 0.0000000000000000 0.7456246800000000 Cu
    constrain_relaxation .true.
atom 2.1089450599999999 2.5829196500000000 0.7456246800000000 Cu
    constrain_relaxation .true.
atom 2.1089450599999999 5.1658393000000000 0.7456246800000000 Cu
    constrain_relaxation .true.
atom 0.0000000000000000 1.2914598300000000 1.4912493600000001 Cu
    constrain_relaxation .true.
atom 0.0000000000000000 3.8743794800000000 1.4912493600000001 Cu
    constrain_relaxation .true.
atom 0.0000000000000000 6.4572991300000000 1.4912493600000001 Cu
    constrain_relaxation .true.
atom 4.2178901299999998 0.0000000000000000 2.2368740300000001 Cu
    constrain_relaxation .true.
atom 4.2178901299999998 2.5829196500000000 2.2368740300000001 Cu
    constrain_relaxation .true.
atom 4.2178901299999998 5.1658393000000000 2.2368740300000001 Cu
    constrain_relaxation .true.
atom 2.1089450599999999 1.2914598300000000 2.9824987100000002 Cu
    constrain_relaxation .true.
atom 2.1089450599999999 3.8743794800000000 2.9824987100000002 Cu
    constrain_relaxation .true.
atom 2.1089450599999999 6.4572991300000000 2.9824987100000002 Cu
    constrain_relaxation .true.
atom 0.0000000000000000 0.0000000000000000 3.7281233899999999 Cu
    constrain_relaxation .true.
atom 0.0000000000000000 2.5829196500000000 3.7281233899999999 Cu
    constrain_relaxation .true.
atom 0.0000000000000000 5.1658393000000000 3.7281233899999999 Cu
    constrain_relaxation .true.
atom 4.2230551599999995 1.3295900599999999 4.4619026399999999 Cu
atom 4.0877073099999999 3.9402302699999998 4.6624431900000003 Cu
atom 4.2194468899999995 6.4958812999999997 4.4292653299999998 Cu
atom 2.1361943600000002 0.0624156200000000 5.2611689799999999 Cu
atom 1.9520135500000000 2.6477910400000000 5.2853789300000003 Cu
atom 2.0221491199999999 5.1427141600000006 5.2914019500000000 Cu
atom 6.2065576899999995 1.2858903600000000 5.9678743200000000 Cu
atom 6.2291423299999993 3.8046831200000000 6.1140788500000003 Cu
atom 6.3236608899999993 6.4770873099999999 5.9917194699999996 Cu
atom 4.1681403899999996 7.7185838400000000 6.7362760000000002 Cu
atom 4.0137530199999993 2.5445465000000000 6.7689253899999997 Cu
atom 4.1220924599999993 5.1808900900000001 6.7981965100000004 Cu
atom 1.9650643000000001 1.2416437499999999 7.3626192300000000 Cu
atom 2.0590858000000001 3.8832988600000000 7.4387726299999999 Cu
atom 2.0748170400000001 6.4629394600000003 7.4619009900000002 Cu
atom 6.2709797699999994 0.1167339000000000 8.2431105900000006 Cu
atom 0.0570277900000000 2.5775560700000000 8.1767751099999995 Cu
atom 6.3011207999999996 5.2187356700000000 8.1871580200000000 Cu
atom 4.2699737799999999 1.3695559700000000 8.8896131599999997 Cu
atom 4.2987044299999999 3.9049363600000002 8.9433011699999998 Cu
atom 4.2398981999999998 6.5402719400000002 8.9300132800000007 Cu
atom 2.0594085099999999 0.0736941100000000 9.7823306599999995 Cu
atom 2.1334945500000000 2.5531815199999999 9.7489372999999997 Cu
atom 2.2205016600000000 5.2610491399999999 9.8329038000000004 Cu
atom 6.2952029800000000 1.4264526300000000 10.3953670599999999 Cu
atom 6.2836543200000001 3.8676587100000002 10.5052393100000003 Cu
atom 6.2879122499999998 6.5025758600000003 10.5165606900000004 Cu
atom 4.3210995800000003 0.0000921800000000 11.4148818399999996 Cu
atom 4.2809604500000003 2.4867900500000002 11.3623091200000008 Cu
atom 4.3930434599999995 5.1142415500000000 11.3826900000000002 Cu
atom 2.3917243300000002 1.3238534500000001 12.0651001999999998 Cu
atom 2.2385065100000001 3.9255266700000000 12.0071872899999992 Cu
atom 2.4817250300000002 6.4964353800000003 12.2762762900000002 Cu
atom 0.1840295000000000 7.6938309299999998 12.5535650299999997 Cu
atom 0.2528914100000000 2.5009974700000002 12.6169143199999993 Cu
atom 0.2621154600000000 5.1816920799999995 12.5888280800000008 Cu
