#=======================================================
# FHI-aims file: cu211_3_71_ase.in
# Created using the Atomic Simulation Environment (ASE)
# Mon Nov 13 18:42:20 2023
#=======================================================
lattice_vector 6.4259084960805346 0.0000000000000000 0.0000000000000000 
lattice_vector 0.0000000000000000 7.8700984746062739 0.0000000000000000 
lattice_vector 0.0000000000000000 0.0000000000000000 52.8741098397779155 
atom 4.2839389973870228 1.3116830791010465 0.0000000000000000 Cu
    constrain_relaxation .true.
atom 4.2839389973870228 3.9350492373031378 0.0000000000000000 Cu
    constrain_relaxation .true.
atom 4.2839389973870228 6.5584153955052287 0.0000000000000000 Cu
    constrain_relaxation .true.
atom 2.1419694986935118 0.0000000000000006 0.7573005788104581 Cu
    constrain_relaxation .true.
atom 2.1419694986935118 2.6233661582020917 0.7573005788104581 Cu
    constrain_relaxation .true.
atom 2.1419694986935118 5.2467323164041835 0.7573005788104581 Cu
    constrain_relaxation .true.
atom 0.0000000000000000 1.3116830791010461 1.5146011576209304 Cu
    constrain_relaxation .true.
atom 0.0000000000000000 3.9350492373031374 1.5146011576209304 Cu
    constrain_relaxation .true.
atom 0.0000000000000000 6.5584153955052287 1.5146011576209304 Cu
    constrain_relaxation .true.
atom 4.2839389973870237 0.0000000000000005 2.2719017364313956 Cu
    constrain_relaxation .true.
atom 4.2839389973870237 2.6233661582020917 2.2719017364313956 Cu
    constrain_relaxation .true.
atom 4.2839389973870237 5.2467323164041835 2.2719017364313956 Cu
    constrain_relaxation .true.
atom 2.1419694986935118 1.3116830791010461 3.0292023152418608 Cu
    constrain_relaxation .true.
atom 2.1419694986935118 3.9350492373031374 3.0292023152418608 Cu
    constrain_relaxation .true.
atom 2.1419694986935118 6.5584153955052287 3.0292023152418608 Cu
    constrain_relaxation .true.
atom 0.0000000000000000 0.0000000000000000 3.7865028940523260 Cu
    constrain_relaxation .true.
atom 0.0000000000000000 2.6233661582020913 3.7865028940523260 Cu
    constrain_relaxation .true.
atom 0.0000000000000000 5.2467323164041826 3.7865028940523260 Cu
    constrain_relaxation .true.
atom 4.2839389973870228 1.3116830791010465 4.5438034728627912 Cu
atom 4.2839389973870228 3.9350492373031378 4.5438034728627912 Cu
atom 4.2839389973870228 6.5584153955052287 4.5438034728627912 Cu
atom 2.1419694986935118 0.0000000000000006 5.3011040516732564 Cu
atom 2.1419694986935118 2.6233661582020917 5.3011040516732564 Cu
atom 2.1419694986935118 5.2467323164041835 5.3011040516732564 Cu
atom 0.0000000000000000 1.3116830791010461 6.0584046304837216 Cu
atom 0.0000000000000000 3.9350492373031374 6.0584046304837216 Cu
atom 0.0000000000000000 6.5584153955052287 6.0584046304837216 Cu
atom 4.2839389973870237 0.0000000000000005 6.8157052092941868 Cu
atom 4.2839389973870237 2.6233661582020917 6.8157052092941868 Cu
atom 4.2839389973870237 5.2467323164041835 6.8157052092941868 Cu
atom 2.1419694986935118 1.3116830791010461 7.5730057881046555 Cu
atom 2.1419694986935118 3.9350492373031374 7.5730057881046555 Cu
atom 2.1419694986935118 6.5584153955052287 7.5730057881046555 Cu
atom 0.0000000000000000 0.0000000000000000 8.3303063669151207 Cu
atom 0.0000000000000000 2.6233661582020913 8.3303063669151207 Cu
atom 0.0000000000000000 5.2467323164041826 8.3303063669151207 Cu
atom 4.2839389973870228 1.3116830791010465 9.0876069457255859 Cu
atom 4.2839389973870228 3.9350492373031378 9.0876069457255859 Cu
atom 4.2839389973870228 6.5584153955052287 9.0876069457255859 Cu
atom 2.1419694986935118 0.0000000000000006 9.8449075245360511 Cu
atom 2.1419694986935118 2.6233661582020917 9.8449075245360511 Cu
atom 2.1419694986935118 5.2467323164041835 9.8449075245360511 Cu
atom 0.0000000000000000 1.3116830791010461 10.6022081033465199 Cu
atom 0.0000000000000000 3.9350492373031374 10.6022081033465199 Cu
atom 0.0000000000000000 6.5584153955052287 10.6022081033465199 Cu
atom 4.2839389973870237 0.0000000000000005 11.3595086821569851 Cu
atom 4.2839389973870237 2.6233661582020917 11.3595086821569851 Cu
atom 4.2839389973870237 5.2467323164041835 11.3595086821569851 Cu
atom 2.1419694986935118 1.3116830791010461 12.1168092609674503 Cu
atom 2.1419694986935118 3.9350492373031374 12.1168092609674503 Cu
atom 2.1419694986935118 6.5584153955052287 12.1168092609674503 Cu
atom 0.0000000000000000 0.0000000000000000 12.8741098397779155 Cu
atom 0.0000000000000000 2.6233661582020913 12.8741098397779155 Cu
atom 0.0000000000000000 5.2467323164041826 12.8741098397779155 Cu
