#=======================================================
# FHI-aims file: cu211_3_66_3x4_ase.in
# Created using the Atomic Simulation Environment (ASE)
# Wed Feb 28 21:30:31 2024
#=======================================================
lattice_vector 6.3393059557020912 0.0000000000000000 0.0000000000000000 
lattice_vector 0.0000000000000000 10.3520432765710577 0.0000000000000000 
lattice_vector 0.0000000000000000 0.0000000000000000 52.7006043163307822 
atom 4.2262039704680614 1.2940054095713822 -0.0000000000000000 Cu
    constrain_relaxation .true.
atom 4.2262039704680614 3.8820162287141464 -0.0000000000000000 Cu
    constrain_relaxation .true.
atom 4.2262039704680614 6.4700270478569113 -0.0000000000000000 Cu
    constrain_relaxation .true.
atom 4.2262039704680614 9.0580378669996744 -0.0000000000000000 Cu
    constrain_relaxation .true.
atom 2.1131019852340307 0.0000000000000002 0.7470943715488758 Cu
    constrain_relaxation .true.
atom 2.1131019852340307 2.5880108191427644 0.7470943715488758 Cu
    constrain_relaxation .true.
atom 2.1131019852340307 5.1760216382855289 0.7470943715488758 Cu
    constrain_relaxation .true.
atom 2.1131019852340307 7.7640324574282928 0.7470943715488758 Cu
    constrain_relaxation .true.
atom 0.0000000000000000 1.2940054095713820 1.4941887430977445 Cu
    constrain_relaxation .true.
atom 0.0000000000000000 3.8820162287141464 1.4941887430977445 Cu
    constrain_relaxation .true.
atom 0.0000000000000000 6.4700270478569113 1.4941887430977445 Cu
    constrain_relaxation .true.
atom 0.0000000000000000 9.0580378669996744 1.4941887430977445 Cu
    constrain_relaxation .true.
atom 4.2262039704680614 0.0000000000000001 2.2412831146466132 Cu
    constrain_relaxation .true.
atom 4.2262039704680614 2.5880108191427644 2.2412831146466132 Cu
    constrain_relaxation .true.
atom 4.2262039704680614 5.1760216382855289 2.2412831146466132 Cu
    constrain_relaxation .true.
atom 4.2262039704680614 7.7640324574282928 2.2412831146466132 Cu
    constrain_relaxation .true.
atom 2.1131019852340307 1.2940054095713820 2.9883774861954819 Cu
    constrain_relaxation .true.
atom 2.1131019852340307 3.8820162287141464 2.9883774861954819 Cu
    constrain_relaxation .true.
atom 2.1131019852340307 6.4700270478569113 2.9883774861954819 Cu
    constrain_relaxation .true.
atom 2.1131019852340307 9.0580378669996744 2.9883774861954819 Cu
    constrain_relaxation .true.
atom 0.0000000000000000 0.0000000000000000 3.7354718577443506 Cu
    constrain_relaxation .true.
atom 0.0000000000000000 2.5880108191427644 3.7354718577443506 Cu
    constrain_relaxation .true.
atom 0.0000000000000000 5.1760216382855289 3.7354718577443506 Cu
    constrain_relaxation .true.
atom 0.0000000000000000 7.7640324574282928 3.7354718577443506 Cu
    constrain_relaxation .true.
atom 4.2262039704680614 1.2940054095713822 4.4825662292932194 Cu
atom 4.2262039704680614 3.8820162287141464 4.4825662292932194 Cu
atom 4.2262039704680614 6.4700270478569113 4.4825662292932194 Cu
atom 4.2262039704680614 9.0580378669996744 4.4825662292932194 Cu
atom 2.1131019852340307 0.0000000000000002 5.2296606008420881 Cu
atom 2.1131019852340307 2.5880108191427644 5.2296606008420881 Cu
atom 2.1131019852340307 5.1760216382855289 5.2296606008420881 Cu
atom 2.1131019852340307 7.7640324574282928 5.2296606008420881 Cu
atom 0.0000000000000000 1.2940054095713820 5.9767549723909568 Cu
atom 0.0000000000000000 3.8820162287141464 5.9767549723909568 Cu
atom 0.0000000000000000 6.4700270478569113 5.9767549723909568 Cu
atom 0.0000000000000000 9.0580378669996744 5.9767549723909568 Cu
atom 4.2262039704680614 0.0000000000000001 6.7238493439398290 Cu
atom 4.2262039704680614 2.5880108191427644 6.7238493439398290 Cu
atom 4.2262039704680614 5.1760216382855289 6.7238493439398290 Cu
atom 4.2262039704680614 7.7640324574282928 6.7238493439398290 Cu
atom 2.1131019852340307 1.2940054095713820 7.4709437154886977 Cu
atom 2.1131019852340307 3.8820162287141464 7.4709437154886977 Cu
atom 2.1131019852340307 6.4700270478569113 7.4709437154886977 Cu
atom 2.1131019852340307 9.0580378669996744 7.4709437154886977 Cu
atom 0.0000000000000000 0.0000000000000000 8.2180380870375664 Cu
atom 0.0000000000000000 2.5880108191427644 8.2180380870375664 Cu
atom 0.0000000000000000 5.1760216382855289 8.2180380870375664 Cu
atom 0.0000000000000000 7.7640324574282928 8.2180380870375664 Cu
atom 4.2262039704680614 1.2940054095713822 8.9651324585864351 Cu
atom 4.2262039704680614 3.8820162287141464 8.9651324585864351 Cu
atom 4.2262039704680614 6.4700270478569113 8.9651324585864351 Cu
atom 4.2262039704680614 9.0580378669996744 8.9651324585864351 Cu
atom 2.1131019852340307 0.0000000000000002 9.7122268301353039 Cu
atom 2.1131019852340307 2.5880108191427644 9.7122268301353039 Cu
atom 2.1131019852340307 5.1760216382855289 9.7122268301353039 Cu
atom 2.1131019852340307 7.7640324574282928 9.7122268301353039 Cu
atom 0.0000000000000000 1.2940054095713820 10.4593212016841761 Cu
atom 0.0000000000000000 3.8820162287141464 10.4593212016841761 Cu
atom 0.0000000000000000 6.4700270478569113 10.4593212016841761 Cu
atom 0.0000000000000000 9.0580378669996744 10.4593212016841761 Cu
atom 4.2262039704680614 0.0000000000000001 11.2064155732330448 Cu
atom 4.2262039704680614 2.5880108191427644 11.2064155732330448 Cu
atom 4.2262039704680614 5.1760216382855289 11.2064155732330448 Cu
atom 4.2262039704680614 7.7640324574282928 11.2064155732330448 Cu
atom 2.1131019852340307 1.2940054095713820 11.9535099447819135 Cu
atom 2.1131019852340307 3.8820162287141464 11.9535099447819135 Cu
atom 2.1131019852340307 6.4700270478569113 11.9535099447819135 Cu
atom 2.1131019852340307 9.0580378669996744 11.9535099447819135 Cu
atom 0.0000000000000000 0.0000000000000000 12.7006043163307822 Cu
atom 0.0000000000000000 2.5880108191427644 12.7006043163307822 Cu
atom 0.0000000000000000 5.1760216382855289 12.7006043163307822 Cu
atom 0.0000000000000000 7.7640324574282928 12.7006043163307822 Cu
