#=======================================================
# FHI-aims file: cu211.in
# Created using the Atomic Simulation Environment (ASE)
# Mon Jan 24 15:13:30 2022
#=======================================================
lattice_vector 6.3268351899999997 0.0000000000000000 0.0000000000000000 
lattice_vector 0.0000000000000000 7.7487589500000000 0.0000000000000000 
lattice_vector 0.0000000000000000 0.0000000000000000 52.6756195199999979 
atom 4.2178901299999998 1.2914598300000000 0.0000000000000000 Cu
    constrain_relaxation .true.
atom 4.2178901299999998 3.8743794800000000 0.0000000000000000 Cu
    constrain_relaxation .true.
atom 4.2178901299999998 6.4572991300000000 0.0000000000000000 Cu
    constrain_relaxation .true.
atom 2.1089450599999999 0.0000000000000000 0.7456246800000000 Cu
    constrain_relaxation .true.
atom 2.1089450599999999 2.5829196500000000 0.7456246800000000 Cu
    constrain_relaxation .true.
atom 2.1089450599999999 5.1658393000000000 0.7456246800000000 Cu
    constrain_relaxation .true.
atom 0.0000000000000000 1.2914598300000000 1.4912493600000001 Cu
    constrain_relaxation .true.
atom 0.0000000000000000 3.8743794800000000 1.4912493600000001 Cu
    constrain_relaxation .true.
atom 0.0000000000000000 6.4572991300000000 1.4912493600000001 Cu
    constrain_relaxation .true.
atom 4.2178901299999998 0.0000000000000000 2.2368740300000001 Cu
    constrain_relaxation .true.
atom 4.2178901299999998 2.5829196500000000 2.2368740300000001 Cu
    constrain_relaxation .true.
atom 4.2178901299999998 5.1658393000000000 2.2368740300000001 Cu
    constrain_relaxation .true.
atom 2.1089450599999999 1.2914598300000000 2.9824987100000002 Cu
    constrain_relaxation .true.
atom 2.1089450599999999 3.8743794800000000 2.9824987100000002 Cu
    constrain_relaxation .true.
atom 2.1089450599999999 6.4572991300000000 2.9824987100000002 Cu
    constrain_relaxation .true.
atom 0.0000000000000000 0.0000000000000000 3.7281233899999999 Cu
    constrain_relaxation .true.
atom 0.0000000000000000 2.5829196500000000 3.7281233899999999 Cu
    constrain_relaxation .true.
atom 0.0000000000000000 5.1658393000000000 3.7281233899999999 Cu
    constrain_relaxation .true.
atom 4.2720982200000002 1.3496278799999999 4.3891023000000002 Cu
atom 4.3084990199999993 3.8040929000000001 4.3604613499999996 Cu
atom 4.1213072099999994 6.6492784499999997 4.4409935000000003 Cu
atom 1.9144804799999999 0.1257902900000000 5.1123940799999996 Cu
atom 1.9452668500000001 2.4327163700000001 5.4152080500000004 Cu
atom 2.0753863699999999 5.0764788100000002 5.1036213899999998 Cu
atom 6.0405057499999995 1.3929638700000000 6.1815932699999996 Cu
atom 6.1953669399999995 4.1684034099999998 6.0598750700000004 Cu
atom 6.0239321399999994 6.5723960999999997 5.9842460600000003 Cu
atom 3.8949631099999995 0.2067666800000000 6.6785758299999998 Cu
atom 4.1018920999999997 2.7263789699999998 6.7832870700000001 Cu
atom 4.0786154200000002 5.3237603900000003 6.8039224599999999 Cu
atom 1.9684059899999999 1.1371002200000000 7.5325356499999998 Cu
atom 1.8675416400000000 3.9763465400000002 7.6448120199999998 Cu
atom 1.7517671699999999 6.4592323700000005 7.2484863800000001 Cu
atom 6.0993647099999997 7.6179575899999996 8.5068555099999994 Cu
atom 6.2112473999999995 2.7622293199999999 8.4184657499999993 Cu
atom 5.8952500199999998 5.1613600300000000 8.2019771400000003 Cu
atom 4.0528905999999996 1.3985893599999999 9.3626035900000009 Cu
atom 4.1387255999999999 3.8102172599999999 9.1822883599999994 Cu
atom 3.8926126099999996 6.5343443700000003 8.8182513599999997 Cu
atom 1.9086154500000001 0.0168961500000000 9.9068975300000002 Cu
atom 1.8997920399999999 2.3983796399999999 9.9159686399999991 Cu
atom 1.7437684200000001 4.9772487500000002 9.7080281500000005 Cu
atom 5.9434755799999994 1.4885336800000000 10.4990618100000006 Cu
atom 5.8764899300000000 3.8566700900000002 10.6022245999999996 Cu
atom 5.7373346199999995 6.3933854199999995 10.5940412399999992 Cu
atom 3.7664232399999995 7.4512665100000000 11.3909267900000000 Cu
atom 3.8992019699999996 2.5747253500000000 11.4526765499999996 Cu
atom 3.7232386299999995 5.0924111199999995 11.2289686399999997 Cu
atom 1.6433035199999999 1.1298375300000001 12.2791462800000009 Cu
atom 1.7835253499999999 3.9314709699999999 12.0212739800000001 Cu
atom 1.6934220400000000 6.2775027799999998 12.6999949000000001 Cu
atom 5.9407875599999995 0.1149919600000000 12.5376037500000006 Cu
atom 6.0153844400000001 2.7539426200000001 12.9686852699999999 Cu
atom 5.7430186999999995 5.2286291400000007 12.8963319500000004 Cu
