lattice_vector      6.32683519      0.00000000      0.00000000
lattice_vector      0.00000000     10.33167860      0.00000000
lattice_vector      0.00000000      0.00000000    102.67561952
atom       4.21789013      1.29145983      0.00000000 Cu
  constrain_relaxation .true.
atom       4.21789013      3.87437948      0.00000000 Cu
  constrain_relaxation .true.
atom       4.21789013      6.45729913      0.00000000 Cu
  constrain_relaxation .true.
atom       4.21789013      9.04021878      0.00000000 Cu
  constrain_relaxation .true.
atom       2.10894506     -0.00000000      0.74562468 Cu
  constrain_relaxation .true.
atom       2.10894506      2.58291965      0.74562468 Cu
  constrain_relaxation .true.
atom       2.10894506      5.16583930      0.74562468 Cu
  constrain_relaxation .true.
atom       2.10894506      7.74875895      0.74562468 Cu
  constrain_relaxation .true.
atom       0.00000000      1.29145983      1.49124936 Cu
  constrain_relaxation .true.
atom       0.00000000      3.87437948      1.49124936 Cu
  constrain_relaxation .true.
atom       0.00000000      6.45729913      1.49124936 Cu
  constrain_relaxation .true.
atom       0.00000000      9.04021878      1.49124936 Cu
  constrain_relaxation .true.
atom       4.21789013     -0.00000000      2.23687403 Cu
  constrain_relaxation .true.
atom       4.21789013      2.58291965      2.23687403 Cu
  constrain_relaxation .true.
atom       4.21789013      5.16583930      2.23687403 Cu
  constrain_relaxation .true.
atom       4.21789013      7.74875895      2.23687403 Cu
  constrain_relaxation .true.
atom       2.10894506      1.29145983      2.98249871 Cu
  constrain_relaxation .true.
atom       2.10894506      3.87437948      2.98249871 Cu
  constrain_relaxation .true.
atom       2.10894506      6.45729913      2.98249871 Cu
  constrain_relaxation .true.
atom       2.10894506      9.04021878      2.98249871 Cu
  constrain_relaxation .true.
atom       0.00000000      0.00000000      3.72812339 Cu
  constrain_relaxation .true.
atom       0.00000000      2.58291965      3.72812339 Cu
  constrain_relaxation .true.
atom       0.00000000      5.16583930      3.72812339 Cu
  constrain_relaxation .true.
atom       0.00000000      7.74875895      3.72812339 Cu
  constrain_relaxation .true.
atom       4.21189390      1.29145980      4.46121184 Cu
atom       4.21189389      3.87437945      4.46121184 Cu
atom       4.21189394      6.45729914      4.46121183 Cu
atom       4.21189391      9.04021875      4.46121182 Cu
atom       2.10380878     -0.00000005      5.21485684 Cu
atom       2.10380876      2.58291962      5.21485686 Cu
atom       2.10380878      5.16583932      5.21485684 Cu
atom       2.10380879      7.74875894      5.21485683 Cu
atom      -0.00509283      1.29145976      5.95689302 Cu
atom      -0.00509284      3.87437946      5.95689302 Cu
atom      -0.00509284      6.45729913      5.95689303 Cu
atom      -0.00509284      9.04021872      5.95689301 Cu
atom       4.21548421     -0.00000008      6.69873990 Cu
atom       4.21548420      2.58291959      6.69873988 Cu
atom       4.21548418      5.16583924      6.69873988 Cu
atom       4.21548417      7.74875890      6.69873989 Cu
atom       2.10741721      1.29145973      7.44568176 Cu
atom       2.10741716      3.87437942      7.44568173 Cu
atom       2.10741714      6.45729911      7.44568179 Cu
atom       2.10741715      9.04021869      7.44568180 Cu
atom      -0.00311018     -0.00000009      8.18776432 Cu
atom      -0.00311019      2.58291954      8.18776420 Cu
atom      -0.00311025      5.16583927      8.18776425 Cu
atom      -0.00311027      7.74875891      8.18776428 Cu
atom       4.20628152      1.29145969      8.93615850 Cu
atom       4.20628148      3.87437934      8.93615847 Cu
atom       4.20628143      6.45729906      8.93615854 Cu
atom       4.20628145      9.04021874      8.93615857 Cu
atom       2.10415028     -0.00000009      9.67511639 Cu
atom       2.10415030      2.58291951      9.67511629 Cu
atom       2.10415025      5.16583920      9.67511632 Cu
atom       2.10415022      7.74875890      9.67511640 Cu
atom      -0.04467758      1.29145969     10.40063883 Cu
atom      -0.04467757      3.87437928     10.40063875 Cu
atom      -0.04467762      6.45729910     10.40063882 Cu
atom      -0.04467762      9.04021873     10.40063889 Cu
atom       4.18872157     -0.00000008     11.21762779 Cu
atom       4.18872159      2.58291946     11.21762762 Cu
atom       4.18872160      5.16583911     11.21762755 Cu
atom       4.18872154      7.74875891     11.21762771 Cu
atom       2.10490079      1.29145971     11.88885016 Cu
atom       2.10490081      3.87437931     11.88885000 Cu
atom       2.10490080      6.45729906     11.88885005 Cu
atom       2.10490075      9.04021874     11.88885022 Cu
atom       0.03199790     -0.00000005     12.53158684 Cu
atom       0.03199796      2.58291951     12.53158669 Cu
atom       0.03199801      5.16583911     12.53158657 Cu
atom       0.03199793      7.74875886     12.53158674 Cu