#=======================================================
# FHI-aims file: geometry_34.in
# Created using the Atomic Simulation Environment (ASE)
# Tue Jan  9 14:09:59 2024
#=======================================================
lattice_vector 6.3268351898875963 0.0000000000000000 0.0000000000000000 
lattice_vector 0.0000000000000000 10.3316786012728841 0.0000000000000000 
lattice_vector 0.0000000000000000 0.0000000000000000 52.6756195209543918 
atom 4.2178901265917306 1.2914598251591107 -0.0000000000000000 Cu
    constrain_relaxation .true.
atom 4.2178901265917306 3.8743794754773315 -0.0000000000000000 Cu
    constrain_relaxation .true.
atom 4.2178901265917306 6.4572991257955525 -0.0000000000000000 Cu
    constrain_relaxation .true.
atom 4.2178901265917306 9.0402187761137736 -0.0000000000000000 Cu
    constrain_relaxation .true.
atom 2.1089450632958648 0.0000000000000001 0.7456246777031978 Cu
    constrain_relaxation .true.
atom 2.1089450632958648 2.5829196503182210 0.7456246777031978 Cu
    constrain_relaxation .true.
atom 2.1089450632958648 5.1658393006364420 0.7456246777031978 Cu
    constrain_relaxation .true.
atom 2.1089450632958648 7.7487589509546630 0.7456246777031978 Cu
    constrain_relaxation .true.
atom -0.0000000000000002 1.2914598251591105 1.4912493554063992 Cu
    constrain_relaxation .true.
atom -0.0000000000000002 3.8743794754773315 1.4912493554063992 Cu
    constrain_relaxation .true.
atom -0.0000000000000002 6.4572991257955525 1.4912493554063992 Cu
    constrain_relaxation .true.
atom -0.0000000000000002 9.0402187761137736 1.4912493554063992 Cu
    constrain_relaxation .true.
atom 4.2178901265917306 0.0000000000000002 2.2368740331096006 Cu
    constrain_relaxation .true.
atom 4.2178901265917306 2.5829196503182210 2.2368740331096006 Cu
    constrain_relaxation .true.
atom 4.2178901265917306 5.1658393006364420 2.2368740331096006 Cu
    constrain_relaxation .true.
atom 4.2178901265917306 7.7487589509546630 2.2368740331096006 Cu
    constrain_relaxation .true.
atom 2.1089450632958653 1.2914598251591105 2.9824987108127985 Cu
    constrain_relaxation .true.
atom 2.1089450632958653 3.8743794754773315 2.9824987108127985 Cu
    constrain_relaxation .true.
atom 2.1089450632958653 6.4572991257955525 2.9824987108127985 Cu
    constrain_relaxation .true.
atom 2.1089450632958653 9.0402187761137736 2.9824987108127985 Cu
    constrain_relaxation .true.
atom 0.0000000000000000 0.0000000000000000 3.7281233885159963 Cu
    constrain_relaxation .true.
atom 0.0000000000000000 2.5829196503182210 3.7281233885159963 Cu
    constrain_relaxation .true.
atom 0.0000000000000000 5.1658393006364420 3.7281233885159963 Cu
    constrain_relaxation .true.
atom 0.0000000000000000 7.7487589509546630 3.7281233885159963 Cu
    constrain_relaxation .true.
atom 4.2178901265917306 1.2914598251591107 4.4737480662191977 Cu
atom 4.2178901265917306 3.8743794754773315 4.4737480662191977 Cu
atom 4.2178901265917306 6.4572991257955525 4.4737480662191977 Cu
atom 4.2178901265917306 9.0402187761137736 4.4737480662191977 Cu
atom 2.1089450632958648 0.0000000000000001 5.2193727439223991 Cu
atom 2.1089450632958648 2.5829196503182210 5.2193727439223991 Cu
atom 2.1089450632958648 5.1658393006364420 5.2193727439223991 Cu
atom 2.1089450632958648 7.7487589509546630 5.2193727439223991 Cu
atom -0.0000000000000002 1.2914598251591105 5.9649974216255970 Cu
atom -0.0000000000000002 3.8743794754773315 5.9649974216255970 Cu
atom -0.0000000000000002 6.4572991257955525 5.9649974216255970 Cu
atom -0.0000000000000002 9.0402187761137736 5.9649974216255970 Cu
atom 4.2178901265917306 0.0000000000000002 6.7106220993287948 Cu
atom 4.2178901265917306 2.5829196503182210 6.7106220993287948 Cu
atom 4.2178901265917306 5.1658393006364420 6.7106220993287948 Cu
atom 4.2178901265917306 7.7487589509546630 6.7106220993287948 Cu
atom 2.1089450632958653 1.2914598251591105 7.4562467770319962 Cu
atom 2.1089450632958653 3.8743794754773315 7.4562467770319962 Cu
atom 2.1089450632958653 6.4572991257955525 7.4562467770319962 Cu
atom 2.1089450632958653 9.0402187761137736 7.4562467770319962 Cu
atom 0.0000000000000000 0.0000000000000000 8.2018714547351941 Cu
atom 0.0000000000000000 2.5829196503182210 8.2018714547351941 Cu
atom 0.0000000000000000 5.1658393006364420 8.2018714547351941 Cu
atom 0.0000000000000000 7.7487589509546630 8.2018714547351941 Cu
atom 4.2178901265917306 1.2914598251591107 8.9474961324383955 Cu
atom 4.2178901265917306 3.8743794754773315 8.9474961324383955 Cu
atom 4.2178901265917306 6.4572991257955525 8.9474961324383955 Cu
atom 4.2178901265917306 9.0402187761137736 8.9474961324383955 Cu
atom 2.1089450632958648 0.0000000000000001 9.6931208101415933 Cu
atom 2.1089450632958648 2.5829196503182210 9.6931208101415933 Cu
atom 2.1089450632958648 5.1658393006364420 9.6931208101415933 Cu
atom 2.1089450632958648 7.7487589509546630 9.6931208101415933 Cu
atom -0.0000000000000002 1.2914598251591105 10.4387454878447947 Cu
atom -0.0000000000000002 3.8743794754773315 10.4387454878447947 Cu
atom -0.0000000000000002 6.4572991257955525 10.4387454878447947 Cu
atom -0.0000000000000002 9.0402187761137736 10.4387454878447947 Cu
atom 4.2178901265917306 0.0000000000000002 11.1843701655479926 Cu
atom 4.2178901265917306 2.5829196503182210 11.1843701655479926 Cu
atom 4.2178901265917306 5.1658393006364420 11.1843701655479926 Cu
atom 4.2178901265917306 7.7487589509546630 11.1843701655479926 Cu
atom 2.1089450632958653 1.2914598251591105 11.9299948432511940 Cu
atom 2.1089450632958653 3.8743794754773315 11.9299948432511940 Cu
atom 2.1089450632958653 6.4572991257955525 11.9299948432511940 Cu
atom 2.1089450632958653 9.0402187761137736 11.9299948432511940 Cu
atom 0.0000000000000000 0.0000000000000000 12.6756195209543918 Cu
atom 0.0000000000000000 2.5829196503182210 12.6756195209543918 Cu
atom 0.0000000000000000 5.1658393006364420 12.6756195209543918 Cu
atom 0.0000000000000000 7.7487589509546630 12.6756195209543918 Cu
