#=======================================================
# FHI-aims file: /home/chem/msrmnk/1_calculations/1_H_on_metals/5_ml_models/1_schnet/1_h2cu/7_adaptive_learning/1_julia_scripts/1_initial_conditions/output/1_scattering/cu111_start.in
# Created using the Atomic Simulation Environment (ASE)
# Tue Jan 25 19:34:12 2022
#=======================================================
lattice_vector 7.7487589500000000 0.0000000000000000 0.0000000000000000 
lattice_vector 3.8743794800000000 6.7106221000000001 0.0000000000000000 
lattice_vector 0.0000000000000000 0.0000000000000000 50.5447253199999977 
atom 1.2914598300000000 0.7456246800000000 0.0000000000000000 Cu
    constrain_relaxation .true.
atom 3.8743794800000000 0.7456246800000000 0.0000000000000000 Cu
    constrain_relaxation .true.
atom 6.4572991300000000 0.7456246800000000 0.0000000000000000 Cu
    constrain_relaxation .true.
atom 2.5829196500000000 2.9824987100000002 0.0000000000000000 Cu
    constrain_relaxation .true.
atom 5.1658393000000000 2.9824987100000002 0.0000000000000000 Cu
    constrain_relaxation .true.
atom 7.7487589500000000 2.9824987100000002 0.0000000000000000 Cu
    constrain_relaxation .true.
atom 3.8743794800000000 5.2193727399999998 0.0000000000000000 Cu
    constrain_relaxation .true.
atom 6.4572991300000000 5.2193727399999998 0.0000000000000000 Cu
    constrain_relaxation .true.
atom 9.0402187800000000 5.2193727399999998 0.0000000000000000 Cu
    constrain_relaxation .true.
atom 7.7487589500000000 1.4912493600000001 2.1089450599999999 Cu
    constrain_relaxation .true.
atom 2.5829196500000000 1.4912493600000001 2.1089450599999999 Cu
    constrain_relaxation .true.
atom 5.1658393000000000 1.4912493600000001 2.1089450599999999 Cu
    constrain_relaxation .true.
atom 9.0402187800000000 3.7281233899999999 2.1089450599999999 Cu
    constrain_relaxation .true.
atom 3.8743794800000000 3.7281233899999999 2.1089450599999999 Cu
    constrain_relaxation .true.
atom 6.4572991300000000 3.7281233899999999 2.1089450599999999 Cu
    constrain_relaxation .true.
atom 10.3316786000000000 5.9649974200000004 2.1089450599999999 Cu
    constrain_relaxation .true.
atom 5.1658393000000000 5.9649974200000004 2.1089450599999999 Cu
    constrain_relaxation .true.
atom 7.7487589500000000 5.9649974200000004 2.1089450599999999 Cu
    constrain_relaxation .true.
atom 11.5549529999999994 6.6826145900000000 4.2441451099999998 Cu
atom 2.6122750300000002 0.1905164800000000 4.3028109299999997 Cu
atom 8.7764586900000001 6.6438222800000002 4.2756901699999998 Cu
atom 9.0241787999999996 2.2104276600000001 4.3022640900000004 Cu
atom 3.8832826499999999 2.2072663200000000 4.3770793200000000 Cu
atom 6.5796899599999996 2.0509094399999999 4.3587502699999998 Cu
atom 2.4240219299999999 4.1064423000000003 4.1686399800000000 Cu
atom 4.8811390499999998 4.3005190500000001 4.4124388899999998 Cu
atom 7.4988983500000002 4.5513512299999999 4.1120649900000004 Cu
atom 1.2815589300000001 0.7169034100000000 6.3076913499999998 Cu
atom 3.6354215900000000 0.6341337400000000 6.4007961099999999 Cu
atom 6.4333393900000004 0.8631175800000001 6.5351028400000004 Cu
atom 2.3106510600000001 3.2334674799999998 6.5044442399999998 Cu
atom 5.2068268399999997 2.9658470399999999 6.2837106900000004 Cu
atom 7.6783707300000001 3.1165566899999999 6.3759740200000001 Cu
atom 3.7223289899999998 5.3837797300000005 6.4143919499999997 Cu
atom 6.3678054500000005 5.2053140100000004 6.4428816500000003 Cu
atom 8.7676934700000011 5.2620478400000001 6.3112038999999998 Cu
atom 7.5765671299999999 1.6783638299999999 8.7415562500000004 Cu
atom 2.5054011300000001 1.6864827700000000 8.6534963800000000 Cu
atom 8.9241379599999995 3.7038079000000002 8.7117676799999995 Cu
atom 3.4301547999999999 3.8171297900000001 8.5402696599999999 Cu
atom 5.1088279999999999 1.6128510700000001 8.3920665799999998 Cu
atom 6.1113823800000002 3.9044000300000001 8.4759381499999993 Cu
atom 10.0397319100000004 5.8906177600000005 8.5256977000000003 Cu
atom 4.7192996999999997 6.1958190000000002 8.6587669599999995 Cu
atom 7.6587719999999999 6.1279586400000001 8.6151722500000005 Cu
atom 5.0820802799999996 0.0862648500000000 10.7258519999999997 Cu
atom 6.4447662100000001 2.4709069499999998 10.9648202300000008 Cu
atom 10.3226888099999989 4.8338167600000004 10.6329507599999999 Cu
atom 4.9058691300000001 4.4077295000000003 10.7778623299999996 Cu
atom 7.6488601100000002 4.6421693900000003 10.6303791699999994 Cu
atom 7.5068356600000001 0.2561669900000000 10.7404252099999997 Cu
atom 2.4508714800000000 0.1031252600000000 10.7276031300000003 Cu
atom 9.0289910599999992 2.3706400400000001 11.0149596100000000 Cu
atom 3.8421798500000000 2.1149121800000001 10.9248394999999991 Cu
atom 5.8115692150000005 3.3553110500000001 17.4905410799999999 H
atom 5.1731647321608119 2.9867280500572093 17.4905410799999999 H
